Li2 O3 Ti1-2x2x1                        
   1.00000000000000     
    10.1892954901661401    0.0000000000000000   -0.0166431489875300
     0.0000000000000000   17.6911782476998383    0.0000000000000000
    -1.7244801427344600    0.0000000000000000    9.6667443259936991
   Li   Ti   O 
    64    32    95
Direct
  0.1199947856651095  0.0407619976818888  0.0023384275870140
  0.6188752398414004  0.0424672512656354  0.0017584453983823
  0.1209789311731771  0.5398633563833176 -0.0000078421886604
  0.6212426911132545  0.5394706245143756 -0.0003734660776682
  0.3794110714216885  0.4597975388361162  0.0011046370827517
  0.8792953760342461  0.4594054250179779  0.0013313473875855
  0.3790619107808142  0.9611179063641475  0.0015941714157506
  0.8803670707288015  0.9674102684111533  0.0124820971845579
  0.3805783523156818  0.0413879566916094  0.4982892467481631
  0.8820398144748157  0.0431008401676267  0.4951406487600335
  0.3789914927883934  0.5395003674292489  0.4998656622350768
  0.8786129233773896  0.5382804722787815  0.4992694997158729
  0.1204402513524879  0.4595083536234227  0.4982681169348853
  0.6200173444005567  0.4595538806466776  0.4982621923870241
  0.1219703387723198  0.9629891833861237  0.4943399630752244
  0.6228577732686789  0.9588086912886904  0.5000679698800128
  0.3704784666692675  0.2904950587937570  0.0000230838920311
  0.8705014070621239  0.2904720585001994  0.0004077403964695
  0.3741667210141034  0.7900168921828034  0.0018296303006036
  0.8692289696302492  0.7882688950195575 -0.0026406609158202
  0.1289866031285998  0.2113986608263981  0.0028565184613733
  0.6291079503382568  0.2109130072821250  0.0020166069662035
  0.1340552184662395  0.7056148252226722  0.0079962998687775
  0.6288828209645219  0.7089348183822618  0.0028227702965969
  0.1295107244222168  0.2904920086957875  0.4995724963889168
  0.6294086222181071  0.2904016737125012  0.4997716245276031
  0.1259460792469071  0.7901041331460943  0.4998583127600622
  0.6082545925886139  0.7889969803470868  0.4892346330726097
  0.3707117411165719  0.2107116559398826  0.4977355444213790
  0.8712726860933908  0.2111378949975622  0.4977270199053778
  0.3677617651165839  0.7086224609089419  0.4979194797841604
  0.8769473905600825  0.6989751330519379  0.4897413568278466
  0.1243793196927582  0.1252504314478771  0.4991583013623798
  0.6203898292646768  0.1253479778807216  0.4960472734152626
  0.1271119111247795  0.6227430554762391  0.4960784365205522
  0.6259883930087723  0.6251395578775728  0.4999454808568995
  0.3747157056692674  0.3748014285724999  0.4990255658679008
  0.8748795979490966  0.3746634618401964  0.4992761867456401
  0.3712555465252974  0.8737099630971343  0.4928110227803518
  0.8815481394351338  0.8832040526517707  0.4920918831649566
  0.3775367896869096  0.1251947017867580  0.0021213390616963
  0.8758152004345776  0.1254830490410672  0.0005142777201838
  0.3747334954570121  0.6241795294068314  0.0014015162653618
  0.8744152998603333  0.6230590495415176  0.0031941323049089
  0.1250360195474831  0.3747826701357074  0.0007332035896388
  0.6251803251193683  0.3747958928719494  0.0007822423908276
  0.1391900376146472  0.8767672075277925  0.0106182033860225
  0.6213344145872104  0.8717032399943437  0.0092357944698213
  0.0002119087780224  0.0428157182295891  0.2509341952148463
  0.4999533958056294  0.0425706875197783  0.2506471524972373
 -0.0001513300954930  0.5418175758865199  0.2500191208821163
  0.4999782343827320  0.5414518538297139  0.2503896114540238
 -0.0002843277233435  0.4572879375419385  0.7498798264727607
  0.4991859312283448  0.4569032373583592  0.7498814532457931
 -0.0022174335881562  0.9561875536542633  0.7473260956845869
  0.4955679736934411  0.9627380480590244  0.7505823513925558
  0.2499713295751678  0.2922837069058794  0.2501857693234550
  0.7500188691270020  0.2922608554835451  0.2498869530552502
  0.2507075028582095  0.7917905569342087  0.2509566607542199
  0.7504771243328597  0.7917384124400771  0.2521270043648059
  0.2506720208355965  0.2097079770010573  0.7494009220041868
  0.7493397418125132  0.2103856387091823  0.7506362559380712
  0.2580877187893733  0.7044431116687425  0.7492377639652262
  0.7460321890886646  0.6995404156154469  0.7693581847617402
  0.0000422426066179  0.2088307382275475  0.2499778607986919
  0.4999845615059184  0.2090394105505228  0.2497648968958151
  0.0001724406905245  0.7084081088769384  0.2482678955904389
  0.4995271731416949  0.7080451663976840  0.2486749253222680
  0.0004350979701966  0.2924106436366953  0.7500157314926092
  0.4998976867143280  0.2918755321801602  0.7495452861942589
  0.0262823650816994  0.7890383713197781  0.7681188867176701
  0.5013707717473974  0.7880179364289100  0.7484736121558784
  0.2498543313109072  0.4580720937294211  0.2493731754192234
  0.7497842652064464  0.4580208950782843  0.2500416638697888
  0.2499183008716352  0.9596569483478420  0.2509254403454517
  0.7494802295978453  0.9593082127380581  0.2502711747208041
  0.2482961516733152  0.0436275340927725  0.7515250793211866
  0.7512220894843530  0.0473225480898371  0.7447646755693809
  0.2474899673408365  0.5407484419804589  0.7496108262238844
  0.7489275176077751  0.5394241382182517  0.7489751650923971
 -0.0000469264378906  0.3749688029455843  0.2500506573528554
  0.4998330305602272  0.3749819010684429  0.2499305423263098
 -0.0003770149109245  0.8744898273157328  0.2481260048941192
  0.4993447391043828  0.8755299774702560  0.2496782907180257
  0.0021193560453446  0.1268533381979775  0.7512862880844339
  0.4985620639088783  0.1263620030238536  0.7493064360591980
 -0.0030347465852113  0.6239300986743740  0.7498165890437388
  0.4990197529959124  0.6220991468863389  0.7493527649458617
  0.2499479911458226  0.1255880875494291  0.2493579756556602
  0.7500150081847997  0.1255725314266378  0.2498748576906992
  0.2506688491545054  0.6239240387364413  0.2514912078736534
  0.7495507542812838  0.6239272167212897  0.2486084449448548
  0.2502494175559087  0.3750931968861148  0.7499544721084889
  0.7498304663802295  0.3742130396407243  0.7498918106820899
  0.2584917619292922  0.8791709074124661  0.7441227574544286
  0.7385123443759815  0.8850440105113894  0.7677819962918287
  0.0698347220308329  0.1311073578015336  0.1358302588048703
  0.5698224745203013  0.1310941347894219  0.1359829177120597
  0.0700615973173324  0.6314900419949852  0.1355861785987730
  0.5693824412151476  0.6313186285757135  0.1359780258464153
  0.4296761146942477  0.3688245463693149  0.8636114235161332
  0.9301302970254554  0.3686726773357390  0.8637449051304680
  0.4317939502116828  0.8692854724651747  0.8601221934752715
  0.9211315828830056  0.8622369289394334  0.8458665498354038
  0.4301377133627199  0.1310952294239511  0.3637626102054115
  0.9301734166972738  0.1312165733253539  0.3641937621973566
  0.4302453538399776  0.6314998883269884  0.3641096261417456
  0.9311826371916262  0.6300015692751337  0.3611565183541138
  0.0697441100701437  0.3687636522091614  0.6360411976827571
  0.5698261107227935  0.3685431572579146  0.6361636004041085
  0.0690343107127964  0.8658199976471215  0.6398102904263675
  0.5802984608947309  0.8649808158069036  0.6341746794769415
  0.3196728833898252  0.3814226931038167  0.1357559236912115
  0.8198276637110888  0.3813858569650830  0.1359959628257632
  0.3204114772586080  0.8816736222158146  0.1352977517310444
  0.8201169563546310  0.8821494197736142  0.1351289800561989
  0.1802258406749772  0.1186900629507971  0.8648447870793353
  0.6809703436728786  0.1190954468262514  0.8621601230491474
  0.1780015080128227  0.6199888641090853  0.8616422526695339
  0.6782775469008786  0.6168002759254022  0.8650072376014182
  0.1800471287721883  0.3814286655256776  0.3636712751656564
  0.6801060228422144  0.3813502564188283  0.3639979145381385
  0.1794365239017249  0.8816412459892594  0.3632277515564083
  0.6812643482142082  0.8805771951668604  0.3653226018715784
  0.3191845368122520  0.1185260119624208  0.6360097282390639
  0.8194419005335409  0.1193465186621434  0.6334326913690961
  0.3197326002130276  0.6191551213356017  0.6357473576927103
  0.8178074948935392  0.6198359018981200  0.6360084292743067
  0.0529410911478446  0.2918656771171821  0.1360951898861003
  0.5529891217246812  0.2918933535767742  0.1360652320023912
  0.0529020799319711  0.7922299800582605  0.1350452919714449
  0.5532410521298997  0.7922506549070085  0.1360311379456013
  0.4471534928121257  0.2080315439153575  0.8637545823383450
  0.9471269601215540  0.2077483223792069  0.8634035524367650
  0.4482389263116280  0.7078515521184761  0.8626615357959553
  0.9426874420080590  0.7088122417198751  0.8615599334030655
  0.4469799989922962  0.2918916646530355  0.3635139311162730
  0.9469723051572512  0.2918840139276144  0.3635761782104421
  0.4433623530386451  0.7921572445845431  0.3616386274217198
  0.9459051210044210  0.7924239260524348  0.3641828362055548
  0.0532162950254673  0.2077722853856758  0.6366506495483537
  0.5520996353042149  0.2081531247728421  0.6357241800021605
  0.0437593812255345  0.7112475123162549  0.6345957706266964
  0.5567685272815142  0.7073650482271764  0.6360296816909224
  0.3027879343886279  0.0419665689896178  0.1362414080598406
  0.8032298427211355  0.0420171675997631  0.1358645316609547
  0.3026310428534629  0.5421932619027806  0.1362233295740836
  0.8025734839027712  0.5421160523786281  0.1354264341050445
  0.1956890638952089  0.4587842492316149  0.8632359618663141
  0.6969058992113349  0.4577722522860085  0.8633447239767162
  0.1989028098217920  0.9568344559708470  0.8618671256818364
  0.6908409673022621  0.9611895839799188  0.8725960500945628
  0.1967409656971698  0.0418176395761511  0.3641575342286334
  0.6976131013976239  0.0418958722533447  0.3638484420550252
  0.1971625554382928  0.5421910737580705  0.3643118184700558
  0.6971438264348265  0.5422122562187006  0.3632951027164029
  0.3016818531318105  0.4584980362993777  0.6361625008653351
  0.8030932165241528  0.4580902693801657  0.6360538242511977
  0.3049589496425614  0.9581612786175637  0.6330633750930899
  0.8012796813352748  0.9552051564586839  0.6401654843971800
  0.0691472410880787  0.4530690554648971  0.1337074096322370
  0.5691137703841059  0.4529343392152172  0.1338184858779455
  0.0694335491290872  0.9529600447694129  0.1318417783506116
  0.5688872759562251  0.9530877759676432  0.1351916866897061
  0.4298172657643122  0.0475107057497466  0.8656573091882852
  0.9290764992508241  0.0471300223482207  0.8646863317138123
  0.4291383043856855  0.5471353976379131  0.8658919631443345
  0.9300589999712712  0.5474421389402387  0.8653468697016931
  0.4306036572897949  0.4529446784058014  0.3659434927948043
  0.9305520958023719  0.4528570072404571  0.3662202971714165
  0.4305410618883816  0.9527115386846814  0.3665576194600713
  0.9318720283465245  0.9542301678006030  0.3650526381840236
  0.0699362109138910  0.0471069766440933  0.6342398415581136
  0.5693467074892254  0.0470290482208757  0.6341897616593796
  0.0675051199846120  0.5483107041496136  0.6323286909397997
  0.5681174886708605  0.5461715548378989  0.6334376481448724
  0.3190355511231772  0.2029430910869389  0.1334895222995895
  0.8192045224953001  0.2029038777944719  0.1338478022983282
  0.3199535971410640  0.7025921753538994  0.1336476092442348
  0.8190035975815660  0.7029552475533134  0.1334355393277749
  0.1807723945306030  0.2973678344615201  0.8662415977729943
  0.6807758350557582  0.2969987040913234  0.8661657557969359
  0.1909271117917122  0.7946198326798021  0.8755083912686427
  0.6822366896723463  0.7957647132509701  0.8660583741772068
  0.1807652655728412  0.2028589300036442  0.3659384647948037
  0.6807234117199424  0.2028963292411349  0.3660184890397156
  0.1799189449387258  0.7029402835780960  0.3660513467155792
  0.6812679132692774  0.7036466130240069  0.3675264215440536
  0.3189822117017076  0.2973090898942417  0.6338287371994551
  0.8192501749837511  0.2970104051093622  0.6337846728176310
  0.3217848795707495  0.7966544231374111  0.6327934747885556
 
  0.00000000E+00  0.00000000E+00  0.00000000E+00
  0.00000000E+00  0.00000000E+00  0.00000000E+00
  0.00000000E+00  0.00000000E+00  0.00000000E+00
  0.00000000E+00  0.00000000E+00  0.00000000E+00
  0.00000000E+00  0.00000000E+00  0.00000000E+00
  0.00000000E+00  0.00000000E+00  0.00000000E+00
  0.00000000E+00  0.00000000E+00  0.00000000E+00
  0.00000000E+00  0.00000000E+00  0.00000000E+00
  0.00000000E+00  0.00000000E+00  0.00000000E+00
  0.00000000E+00  0.00000000E+00  0.00000000E+00
  0.00000000E+00  0.00000000E+00  0.00000000E+00
  0.00000000E+00  0.00000000E+00  0.00000000E+00
  0.00000000E+00  0.00000000E+00  0.00000000E+00
  0.00000000E+00  0.00000000E+00  0.00000000E+00
  0.00000000E+00  0.00000000E+00  0.00000000E+00
  0.00000000E+00  0.00000000E+00  0.00000000E+00
  0.00000000E+00  0.00000000E+00  0.00000000E+00
  0.00000000E+00  0.00000000E+00  0.00000000E+00
  0.00000000E+00  0.00000000E+00  0.00000000E+00
  0.00000000E+00  0.00000000E+00  0.00000000E+00
  0.00000000E+00  0.00000000E+00  0.00000000E+00
  0.00000000E+00  0.00000000E+00  0.00000000E+00
  0.00000000E+00  0.00000000E+00  0.00000000E+00
  0.00000000E+00  0.00000000E+00  0.00000000E+00
  0.00000000E+00  0.00000000E+00  0.00000000E+00
  0.00000000E+00  0.00000000E+00  0.00000000E+00
  0.00000000E+00  0.00000000E+00  0.00000000E+00
  0.00000000E+00  0.00000000E+00  0.00000000E+00
  0.00000000E+00  0.00000000E+00  0.00000000E+00
  0.00000000E+00  0.00000000E+00  0.00000000E+00
  0.00000000E+00  0.00000000E+00  0.00000000E+00
  0.00000000E+00  0.00000000E+00  0.00000000E+00
  0.00000000E+00  0.00000000E+00  0.00000000E+00
  0.00000000E+00  0.00000000E+00  0.00000000E+00
  0.00000000E+00  0.00000000E+00  0.00000000E+00
  0.00000000E+00  0.00000000E+00  0.00000000E+00
  0.00000000E+00  0.00000000E+00  0.00000000E+00
  0.00000000E+00  0.00000000E+00  0.00000000E+00
  0.00000000E+00  0.00000000E+00  0.00000000E+00
  0.00000000E+00  0.00000000E+00  0.00000000E+00
  0.00000000E+00  0.00000000E+00  0.00000000E+00
  0.00000000E+00  0.00000000E+00  0.00000000E+00
  0.00000000E+00  0.00000000E+00  0.00000000E+00
  0.00000000E+00  0.00000000E+00  0.00000000E+00
  0.00000000E+00  0.00000000E+00  0.00000000E+00
  0.00000000E+00  0.00000000E+00  0.00000000E+00
  0.00000000E+00  0.00000000E+00  0.00000000E+00
  0.00000000E+00  0.00000000E+00  0.00000000E+00
  0.00000000E+00  0.00000000E+00  0.00000000E+00
  0.00000000E+00  0.00000000E+00  0.00000000E+00
  0.00000000E+00  0.00000000E+00  0.00000000E+00
  0.00000000E+00  0.00000000E+00  0.00000000E+00
  0.00000000E+00  0.00000000E+00  0.00000000E+00
  0.00000000E+00  0.00000000E+00  0.00000000E+00
  0.00000000E+00  0.00000000E+00  0.00000000E+00
  0.00000000E+00  0.00000000E+00  0.00000000E+00
  0.00000000E+00  0.00000000E+00  0.00000000E+00
  0.00000000E+00  0.00000000E+00  0.00000000E+00
  0.00000000E+00  0.00000000E+00  0.00000000E+00
  0.00000000E+00  0.00000000E+00  0.00000000E+00
  0.00000000E+00  0.00000000E+00  0.00000000E+00
  0.00000000E+00  0.00000000E+00  0.00000000E+00
  0.00000000E+00  0.00000000E+00  0.00000000E+00
  0.00000000E+00  0.00000000E+00  0.00000000E+00
  0.00000000E+00  0.00000000E+00  0.00000000E+00
  0.00000000E+00  0.00000000E+00  0.00000000E+00
  0.00000000E+00  0.00000000E+00  0.00000000E+00
  0.00000000E+00  0.00000000E+00  0.00000000E+00
  0.00000000E+00  0.00000000E+00  0.00000000E+00
  0.00000000E+00  0.00000000E+00  0.00000000E+00
  0.00000000E+00  0.00000000E+00  0.00000000E+00
  0.00000000E+00  0.00000000E+00  0.00000000E+00
  0.00000000E+00  0.00000000E+00  0.00000000E+00
  0.00000000E+00  0.00000000E+00  0.00000000E+00
  0.00000000E+00  0.00000000E+00  0.00000000E+00
  0.00000000E+00  0.00000000E+00  0.00000000E+00
  0.00000000E+00  0.00000000E+00  0.00000000E+00
  0.00000000E+00  0.00000000E+00  0.00000000E+00
  0.00000000E+00  0.00000000E+00  0.00000000E+00
  0.00000000E+00  0.00000000E+00  0.00000000E+00
  0.00000000E+00  0.00000000E+00  0.00000000E+00
  0.00000000E+00  0.00000000E+00  0.00000000E+00
  0.00000000E+00  0.00000000E+00  0.00000000E+00
  0.00000000E+00  0.00000000E+00  0.00000000E+00
  0.00000000E+00  0.00000000E+00  0.00000000E+00
  0.00000000E+00  0.00000000E+00  0.00000000E+00
  0.00000000E+00  0.00000000E+00  0.00000000E+00
  0.00000000E+00  0.00000000E+00  0.00000000E+00
  0.00000000E+00  0.00000000E+00  0.00000000E+00
  0.00000000E+00  0.00000000E+00  0.00000000E+00
  0.00000000E+00  0.00000000E+00  0.00000000E+00
  0.00000000E+00  0.00000000E+00  0.00000000E+00
  0.00000000E+00  0.00000000E+00  0.00000000E+00
  0.00000000E+00  0.00000000E+00  0.00000000E+00
  0.00000000E+00  0.00000000E+00  0.00000000E+00
  0.00000000E+00  0.00000000E+00  0.00000000E+00
  0.00000000E+00  0.00000000E+00  0.00000000E+00
  0.00000000E+00  0.00000000E+00  0.00000000E+00
  0.00000000E+00  0.00000000E+00  0.00000000E+00
  0.00000000E+00  0.00000000E+00  0.00000000E+00
  0.00000000E+00  0.00000000E+00  0.00000000E+00
  0.00000000E+00  0.00000000E+00  0.00000000E+00
  0.00000000E+00  0.00000000E+00  0.00000000E+00
  0.00000000E+00  0.00000000E+00  0.00000000E+00
  0.00000000E+00  0.00000000E+00  0.00000000E+00
  0.00000000E+00  0.00000000E+00  0.00000000E+00
  0.00000000E+00  0.00000000E+00  0.00000000E+00
  0.00000000E+00  0.00000000E+00  0.00000000E+00
  0.00000000E+00  0.00000000E+00  0.00000000E+00
  0.00000000E+00  0.00000000E+00  0.00000000E+00
  0.00000000E+00  0.00000000E+00  0.00000000E+00
  0.00000000E+00  0.00000000E+00  0.00000000E+00
  0.00000000E+00  0.00000000E+00  0.00000000E+00
  0.00000000E+00  0.00000000E+00  0.00000000E+00
  0.00000000E+00  0.00000000E+00  0.00000000E+00
  0.00000000E+00  0.00000000E+00  0.00000000E+00
  0.00000000E+00  0.00000000E+00  0.00000000E+00
  0.00000000E+00  0.00000000E+00  0.00000000E+00
  0.00000000E+00  0.00000000E+00  0.00000000E+00
  0.00000000E+00  0.00000000E+00  0.00000000E+00
  0.00000000E+00  0.00000000E+00  0.00000000E+00
  0.00000000E+00  0.00000000E+00  0.00000000E+00
  0.00000000E+00  0.00000000E+00  0.00000000E+00
  0.00000000E+00  0.00000000E+00  0.00000000E+00
  0.00000000E+00  0.00000000E+00  0.00000000E+00
  0.00000000E+00  0.00000000E+00  0.00000000E+00
  0.00000000E+00  0.00000000E+00  0.00000000E+00
  0.00000000E+00  0.00000000E+00  0.00000000E+00
  0.00000000E+00  0.00000000E+00  0.00000000E+00
  0.00000000E+00  0.00000000E+00  0.00000000E+00
  0.00000000E+00  0.00000000E+00  0.00000000E+00
  0.00000000E+00  0.00000000E+00  0.00000000E+00
  0.00000000E+00  0.00000000E+00  0.00000000E+00
  0.00000000E+00  0.00000000E+00  0.00000000E+00
  0.00000000E+00  0.00000000E+00  0.00000000E+00
  0.00000000E+00  0.00000000E+00  0.00000000E+00
  0.00000000E+00  0.00000000E+00  0.00000000E+00
  0.00000000E+00  0.00000000E+00  0.00000000E+00
  0.00000000E+00  0.00000000E+00  0.00000000E+00
  0.00000000E+00  0.00000000E+00  0.00000000E+00
  0.00000000E+00  0.00000000E+00  0.00000000E+00
  0.00000000E+00  0.00000000E+00  0.00000000E+00
  0.00000000E+00  0.00000000E+00  0.00000000E+00
  0.00000000E+00  0.00000000E+00  0.00000000E+00
  0.00000000E+00  0.00000000E+00  0.00000000E+00
  0.00000000E+00  0.00000000E+00  0.00000000E+00
  0.00000000E+00  0.00000000E+00  0.00000000E+00
  0.00000000E+00  0.00000000E+00  0.00000000E+00
  0.00000000E+00  0.00000000E+00  0.00000000E+00
  0.00000000E+00  0.00000000E+00  0.00000000E+00
  0.00000000E+00  0.00000000E+00  0.00000000E+00
  0.00000000E+00  0.00000000E+00  0.00000000E+00
  0.00000000E+00  0.00000000E+00  0.00000000E+00
  0.00000000E+00  0.00000000E+00  0.00000000E+00
  0.00000000E+00  0.00000000E+00  0.00000000E+00
  0.00000000E+00  0.00000000E+00  0.00000000E+00
  0.00000000E+00  0.00000000E+00  0.00000000E+00
  0.00000000E+00  0.00000000E+00  0.00000000E+00
  0.00000000E+00  0.00000000E+00  0.00000000E+00
  0.00000000E+00  0.00000000E+00  0.00000000E+00
  0.00000000E+00  0.00000000E+00  0.00000000E+00
  0.00000000E+00  0.00000000E+00  0.00000000E+00
  0.00000000E+00  0.00000000E+00  0.00000000E+00
  0.00000000E+00  0.00000000E+00  0.00000000E+00
  0.00000000E+00  0.00000000E+00  0.00000000E+00
  0.00000000E+00  0.00000000E+00  0.00000000E+00
  0.00000000E+00  0.00000000E+00  0.00000000E+00
  0.00000000E+00  0.00000000E+00  0.00000000E+00
  0.00000000E+00  0.00000000E+00  0.00000000E+00
  0.00000000E+00  0.00000000E+00  0.00000000E+00
  0.00000000E+00  0.00000000E+00  0.00000000E+00
  0.00000000E+00  0.00000000E+00  0.00000000E+00
  0.00000000E+00  0.00000000E+00  0.00000000E+00
  0.00000000E+00  0.00000000E+00  0.00000000E+00
  0.00000000E+00  0.00000000E+00  0.00000000E+00
  0.00000000E+00  0.00000000E+00  0.00000000E+00
  0.00000000E+00  0.00000000E+00  0.00000000E+00
  0.00000000E+00  0.00000000E+00  0.00000000E+00
  0.00000000E+00  0.00000000E+00  0.00000000E+00
  0.00000000E+00  0.00000000E+00  0.00000000E+00
  0.00000000E+00  0.00000000E+00  0.00000000E+00
  0.00000000E+00  0.00000000E+00  0.00000000E+00
  0.00000000E+00  0.00000000E+00  0.00000000E+00
  0.00000000E+00  0.00000000E+00  0.00000000E+00
  0.00000000E+00  0.00000000E+00  0.00000000E+00
  0.00000000E+00  0.00000000E+00  0.00000000E+00
  0.00000000E+00  0.00000000E+00  0.00000000E+00
  0.00000000E+00  0.00000000E+00  0.00000000E+00
  0.00000000E+00  0.00000000E+00  0.00000000E+00
  0.00000000E+00  0.00000000E+00  0.00000000E+00
  0.00000000E+00  0.00000000E+00  0.00000000E+00
