Mg31 O32                                
   1.00000000000000     
     8.4194560000000003    0.0000000000000000    0.0000000000000000
     0.0000000000000000    8.4194560000000003    0.0000000000000000
     0.0000000000000000    0.0000000000000000    8.4194560000000003
   Mg   O 
    31    32
Direct
  0.0000000000000000  0.0000000000000000  0.5000000000000000
  0.0000000000000000  0.5000000000000000  0.0000000000000000
  0.0000000000000000  0.5000000000000000  0.5000000000000000
  0.5000000000000000  0.0000000000000000  0.0000000000000000
  0.5000000000000000  0.0000000000000000  0.5000000000000000
  0.5000000000000000  0.5000000000000000  0.0000000000000000
  0.5000000000000000  0.5000000000000000  0.5000000000000000
  0.0000000000000000  0.2442966542339917  0.2442966542339917
  0.0000000000000000  0.2442966542339917  0.7557033457660083
  0.0000000000000000  0.7557033457660083  0.2442966542339917
  0.0000000000000000  0.7557033457660083  0.7557033457660083
  0.5000000000000000  0.2492931244049501  0.2492931244049501
  0.5000000000000000  0.2492931244049501  0.7507068755950499
  0.5000000000000000  0.7507068755950499  0.2492931244049501
  0.5000000000000000  0.7507068755950499  0.7507068755950499
  0.2442966542339917  0.0000000000000000  0.2442966542339917
  0.2442966542339917  0.0000000000000000  0.7557033457660083
  0.2492931244049501  0.5000000000000000  0.2492931244049501
  0.2492931244049501  0.5000000000000000  0.7507068755950499
  0.7557033457660083  0.0000000000000000  0.2442966542339917
  0.7557033457660083  0.0000000000000000  0.7557033457660083
  0.7507068755950499  0.5000000000000000  0.2492931244049501
  0.7507068755950499  0.5000000000000000  0.7507068755950499
  0.2442966542339917  0.2442966542339917  0.0000000000000000
  0.2492931244049501  0.2492931244049501  0.5000000000000000
  0.2442966542339917  0.7557033457660083  0.0000000000000000
  0.2492931244049501  0.7507068755950499  0.5000000000000000
  0.7557033457660083  0.2442966542339917  0.0000000000000000
  0.7507068755950499  0.2492931244049501  0.5000000000000000
  0.7557033457660083  0.7557033457660083  0.0000000000000000
  0.7507068755950499  0.7507068755950499  0.5000000000000000
  0.2631248203706349  0.0000000000000000  0.0000000000000000
  0.2513323811703927  0.0000000000000000  0.5000000000000000
  0.2513323811703927  0.5000000000000000  0.0000000000000000
  0.2503535661420102  0.5000000000000000  0.5000000000000000
  0.7368751796293651  0.0000000000000000  0.0000000000000000
  0.7486676188296073  0.0000000000000000  0.5000000000000000
  0.7486676188296073  0.5000000000000000  0.0000000000000000
  0.7496464338579898  0.5000000000000000  0.5000000000000000
  0.2496780935833200  0.2496780935833200  0.2496780935833200
  0.2496780935833200  0.2496780935833200  0.7503219064166800
  0.2496780935833200  0.7503219064166800  0.2496780935833200
  0.2496780935833200  0.7503219064166800  0.7503219064166800
  0.7503219064166800  0.2496780935833200  0.2496780935833200
  0.7503219064166800  0.2496780935833200  0.7503219064166800
  0.7503219064166800  0.7503219064166800  0.2496780935833200
  0.7503219064166800  0.7503219064166800  0.7503219064166800
  0.0000000000000000  0.0000000000000000  0.2631248203706349
  0.0000000000000000  0.0000000000000000  0.7368751796293651
  0.0000000000000000  0.5000000000000000  0.2513323811703927
  0.0000000000000000  0.5000000000000000  0.7486676188296073
  0.5000000000000000  0.0000000000000000  0.2513323811703927
  0.5000000000000000  0.0000000000000000  0.7486676188296073
  0.5000000000000000  0.5000000000000000  0.2503535661420102
  0.5000000000000000  0.5000000000000000  0.7496464338579898
  0.0000000000000000  0.2631248203706349  0.0000000000000000
  0.0000000000000000  0.2513323811703927  0.5000000000000000
  0.0000000000000000  0.7368751796293651  0.0000000000000000
  0.0000000000000000  0.7486676188296073  0.5000000000000000
  0.5000000000000000  0.2513323811703927  0.0000000000000000
  0.5000000000000000  0.2503535661420102  0.5000000000000000
  0.5000000000000000  0.7486676188296073  0.0000000000000000
  0.5000000000000000  0.7496464338579898  0.5000000000000000
 
  0.00000000E+00  0.00000000E+00  0.00000000E+00
  0.00000000E+00  0.00000000E+00  0.00000000E+00
  0.00000000E+00  0.00000000E+00  0.00000000E+00
  0.00000000E+00  0.00000000E+00  0.00000000E+00
  0.00000000E+00  0.00000000E+00  0.00000000E+00
  0.00000000E+00  0.00000000E+00  0.00000000E+00
  0.00000000E+00  0.00000000E+00  0.00000000E+00
  0.00000000E+00  0.00000000E+00  0.00000000E+00
  0.00000000E+00  0.00000000E+00  0.00000000E+00
  0.00000000E+00  0.00000000E+00  0.00000000E+00
  0.00000000E+00  0.00000000E+00  0.00000000E+00
  0.00000000E+00  0.00000000E+00  0.00000000E+00
  0.00000000E+00  0.00000000E+00  0.00000000E+00
  0.00000000E+00  0.00000000E+00  0.00000000E+00
  0.00000000E+00  0.00000000E+00  0.00000000E+00
  0.00000000E+00  0.00000000E+00  0.00000000E+00
  0.00000000E+00  0.00000000E+00  0.00000000E+00
  0.00000000E+00  0.00000000E+00  0.00000000E+00
  0.00000000E+00  0.00000000E+00  0.00000000E+00
  0.00000000E+00  0.00000000E+00  0.00000000E+00
  0.00000000E+00  0.00000000E+00  0.00000000E+00
  0.00000000E+00  0.00000000E+00  0.00000000E+00
  0.00000000E+00  0.00000000E+00  0.00000000E+00
  0.00000000E+00  0.00000000E+00  0.00000000E+00
  0.00000000E+00  0.00000000E+00  0.00000000E+00
  0.00000000E+00  0.00000000E+00  0.00000000E+00
  0.00000000E+00  0.00000000E+00  0.00000000E+00
  0.00000000E+00  0.00000000E+00  0.00000000E+00
  0.00000000E+00  0.00000000E+00  0.00000000E+00
  0.00000000E+00  0.00000000E+00  0.00000000E+00
  0.00000000E+00  0.00000000E+00  0.00000000E+00
  0.00000000E+00  0.00000000E+00  0.00000000E+00
  0.00000000E+00  0.00000000E+00  0.00000000E+00
  0.00000000E+00  0.00000000E+00  0.00000000E+00
  0.00000000E+00  0.00000000E+00  0.00000000E+00
  0.00000000E+00  0.00000000E+00  0.00000000E+00
  0.00000000E+00  0.00000000E+00  0.00000000E+00
  0.00000000E+00  0.00000000E+00  0.00000000E+00
  0.00000000E+00  0.00000000E+00  0.00000000E+00
  0.00000000E+00  0.00000000E+00  0.00000000E+00
  0.00000000E+00  0.00000000E+00  0.00000000E+00
  0.00000000E+00  0.00000000E+00  0.00000000E+00
  0.00000000E+00  0.00000000E+00  0.00000000E+00
  0.00000000E+00  0.00000000E+00  0.00000000E+00
  0.00000000E+00  0.00000000E+00  0.00000000E+00
  0.00000000E+00  0.00000000E+00  0.00000000E+00
  0.00000000E+00  0.00000000E+00  0.00000000E+00
  0.00000000E+00  0.00000000E+00  0.00000000E+00
  0.00000000E+00  0.00000000E+00  0.00000000E+00
  0.00000000E+00  0.00000000E+00  0.00000000E+00
  0.00000000E+00  0.00000000E+00  0.00000000E+00
  0.00000000E+00  0.00000000E+00  0.00000000E+00
  0.00000000E+00  0.00000000E+00  0.00000000E+00
  0.00000000E+00  0.00000000E+00  0.00000000E+00
  0.00000000E+00  0.00000000E+00  0.00000000E+00
  0.00000000E+00  0.00000000E+00  0.00000000E+00
  0.00000000E+00  0.00000000E+00  0.00000000E+00
  0.00000000E+00  0.00000000E+00  0.00000000E+00
  0.00000000E+00  0.00000000E+00  0.00000000E+00
  0.00000000E+00  0.00000000E+00  0.00000000E+00
  0.00000000E+00  0.00000000E+00  0.00000000E+00
  0.00000000E+00  0.00000000E+00  0.00000000E+00
  0.00000000E+00  0.00000000E+00  0.00000000E+00
