Mg31 O32                                
   1.00000000000000     
     8.4194560000000003    0.0000000000000000    0.0000000000000000
     0.0000000000000000    8.4194560000000003    0.0000000000000000
     0.0000000000000000    0.0000000000000000    8.4194560000000003
   Mg   O 
    31    32
Direct
  0.0000000000000000  0.0000000000000000  0.0000000000000000
  0.0000000000000000  0.5000000000000000  0.0000000000000000
  0.0000000000000000  0.5000000000000000  0.5000000000000000
  0.5000000000000000  0.0000000000000000  0.0000000000000000
  0.5000000000000000  0.0000000000000000  0.5000000000000000
  0.5000000000000000  0.5000000000000000  0.0000000000000000
  0.5000000000000000  0.5000000000000000  0.5000000000000000
  0.0000000000000000  0.2442966542091085  0.2557033457908915
  0.0000000000000000  0.2442966542091085  0.7442966542091085
  0.0000000000000000  0.7557033457908915  0.2557033457908915
  0.0000000000000000  0.7557033457908915  0.7442966542091085
  0.5000000000000000  0.2492931244281706  0.2507068755718294
  0.5000000000000000  0.2492931244281706  0.7492931244281706
  0.5000000000000000  0.7507068755718294  0.2507068755718294
  0.5000000000000000  0.7507068755718294  0.7492931244281706
  0.2442966542091085  0.0000000000000000  0.2557033457908915
  0.2442966542091085  0.0000000000000000  0.7442966542091085
  0.2492931244281706  0.5000000000000000  0.2507068755718294
  0.2492931244281706  0.5000000000000000  0.7492931244281706
  0.7557033457908915  0.0000000000000000  0.2557033457908915
  0.7557033457908915  0.0000000000000000  0.7442966542091085
  0.7507068755718294  0.5000000000000000  0.2507068755718294
  0.7507068755718294  0.5000000000000000  0.7492931244281706
  0.2492931244281706  0.2492931244281706  0.0000000000000000
  0.2442966542091085  0.2442966542091085  0.5000000000000000
  0.2492931244281706  0.7507068755718294  0.0000000000000000
  0.2442966542091085  0.7557033457908915  0.5000000000000000
  0.7507068755718294  0.2492931244281706  0.0000000000000000
  0.7557033457908915  0.2442966542091085  0.5000000000000000
  0.7507068755718294  0.7507068755718294  0.0000000000000000
  0.7557033457908915  0.7557033457908915  0.5000000000000000
  0.2513323811676926  0.0000000000000000  0.0000000000000000
  0.2631248204208703  0.0000000000000000  0.5000000000000000
  0.2503535661887284  0.5000000000000000  0.0000000000000000
  0.2513323811676926  0.5000000000000000  0.5000000000000000
  0.7486676188323074  0.0000000000000000  0.0000000000000000
  0.7368751795791297  0.0000000000000000  0.5000000000000000
  0.7496464338112716  0.5000000000000000  0.0000000000000000
  0.7486676188323074  0.5000000000000000  0.5000000000000000
  0.2496780936036771  0.2496780936036771  0.2503219063963229
  0.2496780936036771  0.2496780936036771  0.7496780936036771
  0.2496780936036771  0.7503219063963229  0.2503219063963229
  0.2496780936036771  0.7503219063963229  0.7496780936036771
  0.7503219063963229  0.2496780936036771  0.2503219063963229
  0.7503219063963229  0.2496780936036771  0.7496780936036771
  0.7503219063963229  0.7503219063963229  0.2503219063963229
  0.7503219063963229  0.7503219063963229  0.7496780936036771
  0.0000000000000000  0.0000000000000000  0.2368751795791297
  0.0000000000000000  0.0000000000000000  0.7631248204208703
  0.0000000000000000  0.5000000000000000  0.2486676188323074
  0.0000000000000000  0.5000000000000000  0.7513323811676926
  0.5000000000000000  0.0000000000000000  0.2486676188323074
  0.5000000000000000  0.0000000000000000  0.7513323811676926
  0.5000000000000000  0.5000000000000000  0.2496464338112716
  0.5000000000000000  0.5000000000000000  0.7503535661887284
  0.0000000000000000  0.2513323811676926  0.0000000000000000
  0.0000000000000000  0.2631248204208703  0.5000000000000000
  0.0000000000000000  0.7486676188323074  0.0000000000000000
  0.0000000000000000  0.7368751795791297  0.5000000000000000
  0.5000000000000000  0.2503535661887284  0.0000000000000000
  0.5000000000000000  0.2513323811676926  0.5000000000000000
  0.5000000000000000  0.7496464338112716  0.0000000000000000
  0.5000000000000000  0.7486676188323074  0.5000000000000000
 
  0.00000000E+00  0.00000000E+00  0.00000000E+00
  0.00000000E+00  0.00000000E+00  0.00000000E+00
  0.00000000E+00  0.00000000E+00  0.00000000E+00
  0.00000000E+00  0.00000000E+00  0.00000000E+00
  0.00000000E+00  0.00000000E+00  0.00000000E+00
  0.00000000E+00  0.00000000E+00  0.00000000E+00
  0.00000000E+00  0.00000000E+00  0.00000000E+00
  0.00000000E+00  0.00000000E+00  0.00000000E+00
  0.00000000E+00  0.00000000E+00  0.00000000E+00
  0.00000000E+00  0.00000000E+00  0.00000000E+00
  0.00000000E+00  0.00000000E+00  0.00000000E+00
  0.00000000E+00  0.00000000E+00  0.00000000E+00
  0.00000000E+00  0.00000000E+00  0.00000000E+00
  0.00000000E+00  0.00000000E+00  0.00000000E+00
  0.00000000E+00  0.00000000E+00  0.00000000E+00
  0.00000000E+00  0.00000000E+00  0.00000000E+00
  0.00000000E+00  0.00000000E+00  0.00000000E+00
  0.00000000E+00  0.00000000E+00  0.00000000E+00
  0.00000000E+00  0.00000000E+00  0.00000000E+00
  0.00000000E+00  0.00000000E+00  0.00000000E+00
  0.00000000E+00  0.00000000E+00  0.00000000E+00
  0.00000000E+00  0.00000000E+00  0.00000000E+00
  0.00000000E+00  0.00000000E+00  0.00000000E+00
  0.00000000E+00  0.00000000E+00  0.00000000E+00
  0.00000000E+00  0.00000000E+00  0.00000000E+00
  0.00000000E+00  0.00000000E+00  0.00000000E+00
  0.00000000E+00  0.00000000E+00  0.00000000E+00
  0.00000000E+00  0.00000000E+00  0.00000000E+00
  0.00000000E+00  0.00000000E+00  0.00000000E+00
  0.00000000E+00  0.00000000E+00  0.00000000E+00
  0.00000000E+00  0.00000000E+00  0.00000000E+00
  0.00000000E+00  0.00000000E+00  0.00000000E+00
  0.00000000E+00  0.00000000E+00  0.00000000E+00
  0.00000000E+00  0.00000000E+00  0.00000000E+00
  0.00000000E+00  0.00000000E+00  0.00000000E+00
  0.00000000E+00  0.00000000E+00  0.00000000E+00
  0.00000000E+00  0.00000000E+00  0.00000000E+00
  0.00000000E+00  0.00000000E+00  0.00000000E+00
  0.00000000E+00  0.00000000E+00  0.00000000E+00
  0.00000000E+00  0.00000000E+00  0.00000000E+00
  0.00000000E+00  0.00000000E+00  0.00000000E+00
  0.00000000E+00  0.00000000E+00  0.00000000E+00
  0.00000000E+00  0.00000000E+00  0.00000000E+00
  0.00000000E+00  0.00000000E+00  0.00000000E+00
  0.00000000E+00  0.00000000E+00  0.00000000E+00
  0.00000000E+00  0.00000000E+00  0.00000000E+00
  0.00000000E+00  0.00000000E+00  0.00000000E+00
  0.00000000E+00  0.00000000E+00  0.00000000E+00
  0.00000000E+00  0.00000000E+00  0.00000000E+00
  0.00000000E+00  0.00000000E+00  0.00000000E+00
  0.00000000E+00  0.00000000E+00  0.00000000E+00
  0.00000000E+00  0.00000000E+00  0.00000000E+00
  0.00000000E+00  0.00000000E+00  0.00000000E+00
  0.00000000E+00  0.00000000E+00  0.00000000E+00
  0.00000000E+00  0.00000000E+00  0.00000000E+00
  0.00000000E+00  0.00000000E+00  0.00000000E+00
  0.00000000E+00  0.00000000E+00  0.00000000E+00
  0.00000000E+00  0.00000000E+00  0.00000000E+00
  0.00000000E+00  0.00000000E+00  0.00000000E+00
  0.00000000E+00  0.00000000E+00  0.00000000E+00
  0.00000000E+00  0.00000000E+00  0.00000000E+00
  0.00000000E+00  0.00000000E+00  0.00000000E+00
  0.00000000E+00  0.00000000E+00  0.00000000E+00
