Mg O                                    
   1.00000000000000     
     8.4937860392504003    0.0000000000000000    0.0000000000000000
     0.0000000000000000    8.4937860392504003    0.0000000000000000
     0.0000000000000000    0.0000000000000000    8.4937860392504003
   Mg   O 
    32    31
Direct
  0.9997945848250112  0.9997945848250112  0.9997945848250112
  0.9997945848250112  0.9997945848250112  0.5002054151749888
  0.9997945848250112  0.5002054151749888  0.9997945848250112
  0.9997945848250112  0.5002054151749888  0.5002054151749888
  0.5002054151749888  0.9997945848250112  0.9997945848250112
  0.5002054151749888  0.9997945848250112  0.5002054151749888
  0.5002054151749888  0.5002054151749888  0.9997945848250112
  0.5002054151749888  0.5002054151749888  0.5002054151749888
  0.9800115584880587  0.2500000000000000  0.2500000000000000
  0.9976927449558488  0.2500000000000000  0.7499999999999929
  0.9976927449558488  0.7499999999999929  0.2500000000000000
  0.9990610048283273  0.7499999999999929  0.7499999999999929
  0.5199884415119413  0.2500000000000000  0.2500000000000000
  0.5023072550441512  0.2500000000000000  0.7499999999999929
  0.5023072550441512  0.7499999999999929  0.2500000000000000
  0.5009389951716727  0.7499999999999929  0.7499999999999929
  0.2500000000000000  0.9800115584880587  0.2500000000000000
  0.2500000000000000  0.9976927449558488  0.7499999999999929
  0.2500000000000000  0.5199884415119413  0.2500000000000000
  0.2500000000000000  0.5023072550441512  0.7499999999999929
  0.7499999999999929  0.9976927449558488  0.2500000000000000
  0.7499999999999929  0.9990610048283273  0.7499999999999929
  0.7499999999999929  0.5023072550441512  0.2500000000000000
  0.7499999999999929  0.5009389951716727  0.7499999999999929
  0.2500000000000000  0.2500000000000000  0.9800115584880587
  0.2500000000000000  0.2500000000000000  0.5199884415119413
  0.2500000000000000  0.7499999999999929  0.9976927449558488
  0.2500000000000000  0.7499999999999929  0.5023072550441512
  0.7499999999999929  0.2500000000000000  0.9976927449558488
  0.7499999999999929  0.2500000000000000  0.5023072550441512
  0.7499999999999929  0.7499999999999929  0.9990610048283273
  0.7499999999999929  0.7499999999999929  0.5009389951716727
  0.2500000000000000  0.2500000000000000  0.7499999999999929
  0.2500000000000000  0.7499999999999929  0.2500000000000000
  0.2500000000000000  0.7499999999999929  0.7499999999999929
  0.7499999999999929  0.2500000000000000  0.2500000000000000
  0.7499999999999929  0.2500000000000000  0.7499999999999929
  0.7499999999999929  0.7499999999999929  0.2500000000000000
  0.7499999999999929  0.7499999999999929  0.7499999999999929
  0.2500000000000000  0.0059767682311644  0.0059767682311644
  0.2500000000000000  0.0059767682311644  0.4940232317688356
  0.2500000000000000  0.4940232317688356  0.0059767682311644
  0.2500000000000000  0.4940232317688356  0.4940232317688356
  0.7499999999999929  0.0014387668731644  0.0014387668731644
  0.7499999999999929  0.0014387668731644  0.4985612331268356
  0.7499999999999929  0.4985612331268356  0.0014387668731644
  0.7499999999999929  0.4985612331268356  0.4985612331268356
  0.0059767682311644  0.2500000000000000  0.0059767682311644
  0.0059767682311644  0.2500000000000000  0.4940232317688356
  0.0014387668731644  0.7499999999999929  0.0014387668731644
  0.0014387668731644  0.7499999999999929  0.4985612331268356
  0.4940232317688356  0.2500000000000000  0.0059767682311644
  0.4940232317688356  0.2500000000000000  0.4940232317688356
  0.4985612331268356  0.7499999999999929  0.0014387668731644
  0.4985612331268356  0.7499999999999929  0.4985612331268356
  0.0059767682311644  0.0059767682311644  0.2500000000000000
  0.0014387668731644  0.0014387668731644  0.7499999999999929
  0.0059767682311644  0.4940232317688356  0.2500000000000000
  0.0014387668731644  0.4985612331268356  0.7499999999999929
  0.4940232317688356  0.0059767682311644  0.2500000000000000
  0.4985612331268356  0.0014387668731644  0.7499999999999929
  0.4940232317688356  0.4940232317688356  0.2500000000000000
  0.4985612331268356  0.4985612331268356  0.7499999999999929
 
  0.00000000E+00  0.00000000E+00  0.00000000E+00
  0.00000000E+00  0.00000000E+00  0.00000000E+00
  0.00000000E+00  0.00000000E+00  0.00000000E+00
  0.00000000E+00  0.00000000E+00  0.00000000E+00
  0.00000000E+00  0.00000000E+00  0.00000000E+00
  0.00000000E+00  0.00000000E+00  0.00000000E+00
  0.00000000E+00  0.00000000E+00  0.00000000E+00
  0.00000000E+00  0.00000000E+00  0.00000000E+00
  0.00000000E+00  0.00000000E+00  0.00000000E+00
  0.00000000E+00  0.00000000E+00  0.00000000E+00
  0.00000000E+00  0.00000000E+00  0.00000000E+00
  0.00000000E+00  0.00000000E+00  0.00000000E+00
  0.00000000E+00  0.00000000E+00  0.00000000E+00
  0.00000000E+00  0.00000000E+00  0.00000000E+00
  0.00000000E+00  0.00000000E+00  0.00000000E+00
  0.00000000E+00  0.00000000E+00  0.00000000E+00
  0.00000000E+00  0.00000000E+00  0.00000000E+00
  0.00000000E+00  0.00000000E+00  0.00000000E+00
  0.00000000E+00  0.00000000E+00  0.00000000E+00
  0.00000000E+00  0.00000000E+00  0.00000000E+00
  0.00000000E+00  0.00000000E+00  0.00000000E+00
  0.00000000E+00  0.00000000E+00  0.00000000E+00
  0.00000000E+00  0.00000000E+00  0.00000000E+00
  0.00000000E+00  0.00000000E+00  0.00000000E+00
  0.00000000E+00  0.00000000E+00  0.00000000E+00
  0.00000000E+00  0.00000000E+00  0.00000000E+00
  0.00000000E+00  0.00000000E+00  0.00000000E+00
  0.00000000E+00  0.00000000E+00  0.00000000E+00
  0.00000000E+00  0.00000000E+00  0.00000000E+00
  0.00000000E+00  0.00000000E+00  0.00000000E+00
  0.00000000E+00  0.00000000E+00  0.00000000E+00
  0.00000000E+00  0.00000000E+00  0.00000000E+00
  0.00000000E+00  0.00000000E+00  0.00000000E+00
  0.00000000E+00  0.00000000E+00  0.00000000E+00
  0.00000000E+00  0.00000000E+00  0.00000000E+00
  0.00000000E+00  0.00000000E+00  0.00000000E+00
  0.00000000E+00  0.00000000E+00  0.00000000E+00
  0.00000000E+00  0.00000000E+00  0.00000000E+00
  0.00000000E+00  0.00000000E+00  0.00000000E+00
  0.00000000E+00  0.00000000E+00  0.00000000E+00
  0.00000000E+00  0.00000000E+00  0.00000000E+00
  0.00000000E+00  0.00000000E+00  0.00000000E+00
  0.00000000E+00  0.00000000E+00  0.00000000E+00
  0.00000000E+00  0.00000000E+00  0.00000000E+00
  0.00000000E+00  0.00000000E+00  0.00000000E+00
  0.00000000E+00  0.00000000E+00  0.00000000E+00
  0.00000000E+00  0.00000000E+00  0.00000000E+00
  0.00000000E+00  0.00000000E+00  0.00000000E+00
  0.00000000E+00  0.00000000E+00  0.00000000E+00
  0.00000000E+00  0.00000000E+00  0.00000000E+00
  0.00000000E+00  0.00000000E+00  0.00000000E+00
  0.00000000E+00  0.00000000E+00  0.00000000E+00
  0.00000000E+00  0.00000000E+00  0.00000000E+00
  0.00000000E+00  0.00000000E+00  0.00000000E+00
  0.00000000E+00  0.00000000E+00  0.00000000E+00
  0.00000000E+00  0.00000000E+00  0.00000000E+00
  0.00000000E+00  0.00000000E+00  0.00000000E+00
  0.00000000E+00  0.00000000E+00  0.00000000E+00
  0.00000000E+00  0.00000000E+00  0.00000000E+00
  0.00000000E+00  0.00000000E+00  0.00000000E+00
  0.00000000E+00  0.00000000E+00  0.00000000E+00
  0.00000000E+00  0.00000000E+00  0.00000000E+00
  0.00000000E+00  0.00000000E+00  0.00000000E+00
