Mg O
1.0
8.493786 0.000000 0.000000
0.000000 8.493786 0.000000
0.000000 0.000000 8.493786
Mg O
14 15
direct
0.249795 0.249795 0.249795 Mg
0.249795 0.249795 0.750205 Mg
0.249795 0.750205 0.249795 Mg
0.249795 0.750205 0.750205 Mg
0.750205 0.249795 0.249795 Mg
0.750205 0.249795 0.750205 Mg
0.750205 0.750205 0.249795 Mg
0.750205 0.750205 0.750205 Mg
0.230012 0.500000 0.500000 Mg
0.769988 0.500000 0.500000 Mg
0.500000 0.230012 0.500000 Mg
0.500000 0.769988 0.500000 Mg
0.500000 0.500000 0.230012 Mg
0.500000 0.500000 0.769988 Mg
0.500000 0.500000 1.000000 O
0.500000 1.000000 0.500000 O
1.000000 0.500000 0.500000 O
0.500000 0.255977 0.255977 O
0.500000 0.255977 0.744023 O
0.500000 0.744023 0.255977 O
0.500000 0.744023 0.744023 O
0.255977 0.500000 0.255977 O
0.255977 0.500000 0.744023 O
0.744023 0.500000 0.255977 O
0.744023 0.500000 0.744023 O
0.255977 0.255977 0.500000 O
0.255977 0.744023 0.500000 O
0.744023 0.255977 0.500000 O
0.744023 0.744023 0.500000 O

0.000000 0.000000 0.000000
0.000000 0.000000 0.000000
0.000000 0.000000 0.000000
0.000000 0.000000 0.000000
0.000000 0.000000 0.000000
0.000000 0.000000 0.000000
0.000000 0.000000 0.000000
0.000000 0.000000 0.000000
0.000000 0.000000 0.000000
0.000000 0.000000 0.000000
0.000000 0.000000 0.000000
0.000000 0.000000 0.000000
0.000000 0.000000 0.000000
0.000000 0.000000 0.000000
0.000000 0.000000 0.000000
0.000000 0.000000 0.000000
0.000000 0.000000 0.000000
0.000000 0.000000 0.000000
0.000000 0.000000 0.000000
0.000000 0.000000 0.000000
0.000000 0.000000 0.000000
0.000000 0.000000 0.000000
0.000000 0.000000 0.000000
0.000000 0.000000 0.000000
0.000000 0.000000 0.000000
0.000000 0.000000 0.000000
0.000000 0.000000 0.000000
0.000000 0.000000 0.000000
0.000000 0.000000 0.000000
