Sc N-2x2x2
1.0
    8.99448717204294      0.00000000000000      0.00000000000000
    0.00000000000000      8.99448717204294      0.00000000000000
    0.00000000000000      0.00000000000000      8.99448717204294
Sc N
32 32
Direct
    0.00000000000000      0.00000000000000      0.00000000000000 # Sc1
    0.50000000000000      0.00000000000000      0.00000000000000 # Sc2
    0.00000000000000      0.50000000000000      0.00000000000000 # Sc3
    0.50000000000000      0.50000000000000      0.00000000000000 # Sc4
    0.00000000000000      0.00000000000000      0.50000000000000 # Sc5
    0.50000000000000      0.00000000000000      0.50000000000000 # Sc6
    0.00000000000000      0.50000000000000      0.50000000000000 # Sc7
    0.50000000000000      0.50000000000000      0.50000000000000 # Sc8
    0.00000000000000      0.25000000000000      0.25000000000000 # Sc9
    0.50000000000000      0.25000000000000      0.25000000000000 # Sc10
    0.00000000000000      0.75000000000000      0.25000000000000 # Sc11
    0.50000000000000      0.75000000000000      0.25000000000000 # Sc12
    0.00000000000000      0.25000000000000      0.75000000000000 # Sc13
    0.50000000000000      0.25000000000000      0.75000000000000 # Sc14
    0.00000000000000      0.75000000000000      0.75000000000000 # Sc15
    0.50000000000000      0.75000000000000      0.75000000000000 # Sc16
    0.25000000000000      0.00000000000000      0.25000000000000 # Sc17
    0.75000000000000      0.00000000000000      0.25000000000000 # Sc18
    0.25000000000000      0.50000000000000      0.25000000000000 # Sc19
    0.75000000000000      0.50000000000000      0.25000000000000 # Sc20
    0.25000000000000      0.00000000000000      0.75000000000000 # Sc21
    0.75000000000000      0.00000000000000      0.75000000000000 # Sc22
    0.25000000000000      0.50000000000000      0.75000000000000 # Sc23
    0.75000000000000      0.50000000000000      0.75000000000000 # Sc24
    0.25000000000000      0.25000000000000      0.00000000000000 # Sc25
    0.75000000000000      0.25000000000000      0.00000000000000 # Sc26
    0.25000000000000      0.75000000000000      0.00000000000000 # Sc27
    0.75000000000000      0.75000000000000      0.00000000000000 # Sc28
    0.25000000000000      0.25000000000000      0.50000000000000 # Sc29
    0.75000000000000      0.25000000000000      0.50000000000000 # Sc30
    0.25000000000000      0.75000000000000      0.50000000000000 # Sc31
    0.75000000000000      0.75000000000000      0.50000000000000 # Sc32
    0.00000000000000      0.25000000000000      0.00000000000000 # N1
    0.50000000000000      0.25000000000000      0.00000000000000 # N2
    0.00000000000000      0.75000000000000      0.00000000000000 # N3
    0.50000000000000      0.75000000000000      0.00000000000000 # N4
    0.00000000000000      0.25000000000000      0.50000000000000 # N5
    0.50000000000000      0.25000000000000      0.50000000000000 # N6
    0.00000000000000      0.75000000000000      0.50000000000000 # N7
    0.50000000000000      0.75000000000000      0.50000000000000 # N8
    0.00000000000000      0.00000000000000      0.25000000000000 # N9
    0.50000000000000      0.00000000000000      0.25000000000000 # N10
    0.00000000000000      0.50000000000000      0.25000000000000 # N11
    0.50000000000000      0.50000000000000      0.25000000000000 # N12
    0.00000000000000      0.00000000000000      0.75000000000000 # N13
    0.50000000000000      0.00000000000000      0.75000000000000 # N14
    0.00000000000000      0.50000000000000      0.75000000000000 # N15
    0.50000000000000      0.50000000000000      0.75000000000000 # N16
    0.25000000000000      0.25000000000000      0.25000000000000 # N17
    0.75000000000000      0.25000000000000      0.25000000000000 # N18
    0.25000000000000      0.75000000000000      0.25000000000000 # N19
    0.75000000000000      0.75000000000000      0.25000000000000 # N20
    0.25000000000000      0.25000000000000      0.75000000000000 # N21
    0.75000000000000      0.25000000000000      0.75000000000000 # N22
    0.25000000000000      0.75000000000000      0.75000000000000 # N23
    0.75000000000000      0.75000000000000      0.75000000000000 # N24
    0.25000000000000      0.00000000000000      0.00000000000000 # N25
    0.75000000000000      0.00000000000000      0.00000000000000 # N26
    0.25000000000000      0.50000000000000      0.00000000000000 # N27
    0.75000000000000      0.50000000000000      0.00000000000000 # N28
    0.25000000000000      0.00000000000000      0.50000000000000 # N29
    0.75000000000000      0.00000000000000      0.50000000000000 # N30
    0.25000000000000      0.50000000000000      0.50000000000000 # N31
    0.75000000000000      0.50000000000000      0.50000000000000 # N32
