Mg9 O7                                  
   1.00000000000000     
     0.0000000000000000    4.2468930000000000    4.2468930000000000
     4.2468930000000000    0.0000000000000000    4.2468930000000000
     4.2468930000000000    4.2468930000000000    0.0000000000000000
   Mg   O 
     9     7
Direct
  0.1636587856485079  0.1623442867308640  0.1614948378865009
  0.9997888664387702  0.9994190489252830  0.9975976242864633
  0.9687877972044987  0.9683379506915415  0.5695656245206706
  0.9687718442206048  0.5706461546683812  0.9666980848749702
  0.9961012902003432  0.5110984321330392  0.5084946817241729
  0.5715704269273658  0.9685669177901914  0.9661793443946252
  0.5111079345893899  0.9957524055942315  0.5090832644728494
  0.5111322871758048  0.5107786999835113  0.9938478660722154
  0.5078805200642833  0.5074475985351441  0.5056587254076632
  0.2574721477539015  0.2562821560331798  0.7730545477326132
  0.2572216364182154  0.7737706171367407  0.2550799697216419
  0.2494468780283725  0.7577499661083280  0.7562432977040032
  0.7754042135136601  0.2565790493285007  0.2549432375121157
  0.7583426397455071  0.2493759166470966  0.7559018595460074
  0.7579910385907525  0.7580871636931761  0.2471505797001257
  0.7465896934800185  0.7460906360008082  0.7442214544433625
 
  0.00000000E+00  0.00000000E+00  0.00000000E+00
  0.00000000E+00  0.00000000E+00  0.00000000E+00
  0.00000000E+00  0.00000000E+00  0.00000000E+00
  0.00000000E+00  0.00000000E+00  0.00000000E+00
  0.00000000E+00  0.00000000E+00  0.00000000E+00
  0.00000000E+00  0.00000000E+00  0.00000000E+00
  0.00000000E+00  0.00000000E+00  0.00000000E+00
  0.00000000E+00  0.00000000E+00  0.00000000E+00
  0.00000000E+00  0.00000000E+00  0.00000000E+00
  0.00000000E+00  0.00000000E+00  0.00000000E+00
  0.00000000E+00  0.00000000E+00  0.00000000E+00
  0.00000000E+00  0.00000000E+00  0.00000000E+00
  0.00000000E+00  0.00000000E+00  0.00000000E+00
  0.00000000E+00  0.00000000E+00  0.00000000E+00
  0.00000000E+00  0.00000000E+00  0.00000000E+00
  0.00000000E+00  0.00000000E+00  0.00000000E+00
