Mg9 O7                                  
   1.00000000000000     
     0.0000000000000000    4.2468930000000000    4.2468930000000000
     4.2468930000000000    0.0000000000000000    4.2468930000000000
     4.2468930000000000    4.2468930000000000    0.0000000000000000
   Mg   O 
     9     7
Direct
  0.1612794086354228  0.1593067074060244  0.1588670333698730
  0.9987808841068997  0.9987754108896425  0.9970798732432371
  0.9700066722647236  0.9697807626616708  0.5704932359027097
  0.9700488207637079  0.5705920841641188  0.9676349515055236
  0.9965890977493927  0.5121095508180602  0.5083265781607693
  0.5726550551365719  0.9699450848092681  0.9670407478704064
  0.5117618626775737  0.9962176497778970  0.5099773988730476
  0.5121132218334807  0.5112568609193318  0.9943678646431735
  0.5072615735970771  0.5079671139936508  0.5056342556247913
  0.2572495297145991  0.2553277700759224  0.7712009977511443
  0.2565665345141568  0.7714495184179739  0.2554289610362943
  0.2502258179129626  0.7574068716117068  0.7564476019149993
  0.7729222105400311  0.2563364341751537  0.2546581662445107
  0.7579193468635879  0.2508990077178836  0.7554854328294027
  0.7580176103272507  0.7577925923631170  0.2476385253884317
  0.7478703533625648  0.7471635801986096  0.7449333756416792
 
  0.00000000E+00  0.00000000E+00  0.00000000E+00
  0.00000000E+00  0.00000000E+00  0.00000000E+00
  0.00000000E+00  0.00000000E+00  0.00000000E+00
  0.00000000E+00  0.00000000E+00  0.00000000E+00
  0.00000000E+00  0.00000000E+00  0.00000000E+00
  0.00000000E+00  0.00000000E+00  0.00000000E+00
  0.00000000E+00  0.00000000E+00  0.00000000E+00
  0.00000000E+00  0.00000000E+00  0.00000000E+00
  0.00000000E+00  0.00000000E+00  0.00000000E+00
  0.00000000E+00  0.00000000E+00  0.00000000E+00
  0.00000000E+00  0.00000000E+00  0.00000000E+00
  0.00000000E+00  0.00000000E+00  0.00000000E+00
  0.00000000E+00  0.00000000E+00  0.00000000E+00
  0.00000000E+00  0.00000000E+00  0.00000000E+00
  0.00000000E+00  0.00000000E+00  0.00000000E+00
  0.00000000E+00  0.00000000E+00  0.00000000E+00
