Mg9 O7
1.0
0.000000 4.246893 4.246893
4.246893 0.000000 4.246893
4.246893 4.246893 0.000000
Mg O
9 7
direct
0.257029 0.257144 0.231241 Mg
0.000000 0.000000 0.000000 Mg
0.007378 0.965522 0.509637 Mg
0.019551 0.512764 0.973913 Mg
0.000768 0.501602 0.496550 Mg
0.493325 0.994785 0.998991 Mg
0.492791 0.012016 0.466440 Mg
0.480426 0.498494 0.038443 Mg
0.500000 0.500000 0.500000 Mg
0.250000 0.250000 0.750000 O
0.250000 0.750000 0.250000 O
0.250000 0.750000 0.750000 O
0.750000 0.250000 0.250000 O
0.750000 0.250000 0.750000 O
0.750000 0.750000 0.250000 O
0.750000 0.750000 0.750000 O
