PREC = A ; LREAL = F
ENCUT = 300 

SYMPREC = 1.0e-04

ISIF = 2
IBRION = 2
NSW = 50
ISMEAR = 0 ; SIGMA = 0.01
NELM = 120 ; NELMIN = 4
EDIFF = 1.0e-04 ; EDIFFG = -0.04

#ISTART = 1 ; ICHARG = 1
LWAVE = .FALSE. ; LCHARG = .FALSE.
LORBIT = 12

LASPH = .TRUE.
NPAR = 4
NELECT = 1411.0