Ba23 Zn12 N24
1.0
8.368575 0.000000 0.000000
0.000000 12.552863 0.000000
0.000000 0.000000 13.054148
Ba Zn N
23 12 24
direct
0.250000 0.500000 0.156714 Ba
-0.000000 0.666667 -0.343286 Ba
0.250000 0.166667 0.156714 Ba
-0.000000 0.333333 -0.343286 Ba
-0.000000 0.000000 -0.343286 Ba
0.750000 0.833333 0.156714 Ba
0.750000 0.500000 0.156714 Ba
0.500000 0.666667 -0.343286 Ba
0.750000 0.166667 0.156714 Ba
0.500000 0.333333 -0.343286 Ba
0.500000 0.000000 -0.343286 Ba
0.500000 0.666667 0.343286 Ba
0.500000 0.333333 0.343286 Ba
0.250000 0.500000 -0.156714 Ba
0.500000 -0.000000 0.343286 Ba
0.250000 0.166667 -0.156714 Ba
0.250000 -0.166667 -0.156714 Ba
1.000000 0.666667 0.343286 Ba
1.000000 0.333333 0.343286 Ba
0.750000 0.500000 -0.156714 Ba
1.000000 -0.000000 0.343286 Ba
0.750000 0.166667 -0.156714 Ba
0.750000 -0.166667 -0.156714 Ba
0.250000 0.833333 0.500000 Zn
0.250000 0.500000 0.500000 Zn
0.000000 0.666667 0.000000 Zn
0.250000 0.166667 0.500000 Zn
0.000000 0.333333 0.000000 Zn
0.000000 0.000000 0.000000 Zn
0.750000 0.833333 0.500000 Zn
0.750000 0.500000 0.500000 Zn
0.500000 0.666667 0.000000 Zn
0.750000 0.166667 0.500000 Zn
0.500000 0.333333 0.000000 Zn
0.500000 0.000000 0.000000 Zn
0.257265 0.834901 0.353760 N
0.250000 0.500000 0.359634 N
-0.000000 0.666667 -0.140366 N
0.250000 0.166667 0.359634 N
-0.000000 0.333333 -0.140366 N
-0.000000 0.000000 -0.140366 N
0.750000 0.833333 0.359634 N
0.750000 0.500000 0.359634 N
0.500000 0.666667 -0.140366 N
0.750000 0.166667 0.359634 N
0.500000 0.333333 -0.140366 N
0.500000 0.000000 -0.140366 N
0.496122 0.673768 0.129661 N
0.500000 0.333333 0.140366 N
0.250000 0.500000 -0.359634 N
0.499535 0.000023 0.140836 N
0.250000 0.166667 -0.359634 N
0.250000 -0.166667 -0.359634 N
0.988893 0.677818 0.143195 N
1.000000 0.333333 0.140366 N
0.750000 0.500000 -0.359634 N
0.005368 0.000496 0.141646 N
0.750000 0.166667 -0.359634 N
0.750000 -0.166667 -0.359634 N
