Mg8 O7                                  
   1.00000000000000     
     0.0000000000000000    4.2468930000000000    4.2468930000000000
     4.2468930000000000    0.0000000000000000    4.2468930000000000
     4.2468930000000000    4.2468930000000000    0.0000000000000000
   Mg   O 
     8     7
Direct
  0.9991674465555889  0.9989707211306822  0.0038934139582665
  0.9984773669782925  0.9974384038346216  0.5050974319356172
  0.9985719282722130  0.4997914983407554  0.0030246760631485
  0.9991624232916934  0.4987722998396080  0.5041167219788178
  0.4994419674342296  0.9984030150105028  0.0038768424098521
  0.5001464139510006  0.9979189201675851  0.5049459469112421
  0.5008138751595865  0.4997193584243362  0.0029790356098474
  0.4994102860310363  0.4987339788749523  0.5038907946455140
  0.2493108734796010  0.2485721689299041  0.7543132906283176
  0.2492078816236045  0.7485945198183970  0.2544628093762569
  0.2494775371042834  0.7487456887237158  0.7540836036242027
  0.7493079995342526  0.2483350851164658  0.2544555006426421
  0.7494156488389265  0.2486695490202067  0.7542072846995396
  0.7494607130077782  0.7484633902731090  0.2544650491603022
  0.7492106387379138  0.7487154024951508  0.7547215983564470
 
  0.00000000E+00  0.00000000E+00  0.00000000E+00
  0.00000000E+00  0.00000000E+00  0.00000000E+00
  0.00000000E+00  0.00000000E+00  0.00000000E+00
  0.00000000E+00  0.00000000E+00  0.00000000E+00
  0.00000000E+00  0.00000000E+00  0.00000000E+00
  0.00000000E+00  0.00000000E+00  0.00000000E+00
  0.00000000E+00  0.00000000E+00  0.00000000E+00
  0.00000000E+00  0.00000000E+00  0.00000000E+00
  0.00000000E+00  0.00000000E+00  0.00000000E+00
  0.00000000E+00  0.00000000E+00  0.00000000E+00
  0.00000000E+00  0.00000000E+00  0.00000000E+00
  0.00000000E+00  0.00000000E+00  0.00000000E+00
  0.00000000E+00  0.00000000E+00  0.00000000E+00
  0.00000000E+00  0.00000000E+00  0.00000000E+00
  0.00000000E+00  0.00000000E+00  0.00000000E+00
