Mg8 O7                                  
   1.00000000000000     
     0.0000000000000000    4.2468930000000000    4.2468930000000000
     4.2468930000000000    0.0000000000000000    4.2468930000000000
     4.2468930000000000    4.2468930000000000    0.0000000000000000
   Mg   O 
     8     7
Direct
  0.9991758170673322  0.9989785223965910  0.0038678073750944
  0.9985736040976292  0.9975300231594701  0.5050397941039861
  0.9986369607590859  0.4996391247783620  0.0031770497233481
  0.9993115822684757  0.4986235391848268  0.5040357094008030
  0.4993243917111556  0.9985263803296220  0.0040621047274669
  0.5000297164494398  0.9980192615686363  0.5048358381661373
  0.5007063304047321  0.4996199168206275  0.0030826504717467
  0.4993884695867123  0.4987660939845782  0.5038822807513981
  0.2493255629545317  0.2485690798389655  0.7542878021848338
  0.2492129173486148  0.7486054995641069  0.2544392248024110
  0.2494778349147424  0.7487596581711742  0.7540548338622699
  0.7493099595967720  0.2483355939066882  0.2544437452842061
  0.7494235541963121  0.2486745348965087  0.7541873794347822
  0.7494695958303623  0.7484650805024486  0.2544491330260783
  0.7492167028140884  0.7487316908973796  0.7546886466854588
 
  0.00000000E+00  0.00000000E+00  0.00000000E+00
  0.00000000E+00  0.00000000E+00  0.00000000E+00
  0.00000000E+00  0.00000000E+00  0.00000000E+00
  0.00000000E+00  0.00000000E+00  0.00000000E+00
  0.00000000E+00  0.00000000E+00  0.00000000E+00
  0.00000000E+00  0.00000000E+00  0.00000000E+00
  0.00000000E+00  0.00000000E+00  0.00000000E+00
  0.00000000E+00  0.00000000E+00  0.00000000E+00
  0.00000000E+00  0.00000000E+00  0.00000000E+00
  0.00000000E+00  0.00000000E+00  0.00000000E+00
  0.00000000E+00  0.00000000E+00  0.00000000E+00
  0.00000000E+00  0.00000000E+00  0.00000000E+00
  0.00000000E+00  0.00000000E+00  0.00000000E+00
  0.00000000E+00  0.00000000E+00  0.00000000E+00
  0.00000000E+00  0.00000000E+00  0.00000000E+00
