Zn54 Sn55 P107
1.0
15.533490 0.000000 -13.914321
-3.100469 15.220920 -13.914321
0.000000 0.000000 20.854199
Zn Sn P
54 55 107
direct
0.500000 0.500000 0.000000 Zn
0.833333 0.500000 0.000000 Zn
0.166667 0.833333 0.000000 Zn
0.500000 0.833333 0.000000 Zn
0.833333 0.833333 0.000000 Zn
0.166667 0.166667 0.333333 Zn
0.500000 0.166667 0.333333 Zn
0.833333 0.166667 0.333333 Zn
0.166667 0.500000 0.333333 Zn
0.500000 0.500000 0.333333 Zn
0.833333 0.500000 0.333333 Zn
0.166667 0.833333 0.333333 Zn
0.500000 0.833333 0.333333 Zn
0.833333 0.833333 0.333333 Zn
0.166667 0.166667 0.666667 Zn
0.500000 0.166667 0.666667 Zn
0.833333 0.166667 0.666667 Zn
0.166667 0.500000 0.666667 Zn
0.500000 0.500000 0.666667 Zn
0.833333 0.500000 0.666667 Zn
0.166667 0.833333 0.666667 Zn
0.500000 0.833333 0.666667 Zn
0.833333 0.833333 0.666667 Zn
0.083333 0.250000 0.166667 Zn
0.416667 0.250000 0.166667 Zn
0.750000 0.250000 0.166667 Zn
0.083333 0.583333 0.166667 Zn
0.416667 0.583333 0.166667 Zn
0.750000 0.583333 0.166667 Zn
0.083333 0.916667 0.166667 Zn
0.416667 0.916667 0.166667 Zn
0.750000 0.916667 0.166667 Zn
0.083333 0.250000 0.500000 Zn
0.416667 0.250000 0.500000 Zn
0.750000 0.250000 0.500000 Zn
0.083333 0.583333 0.500000 Zn
0.416667 0.583333 0.500000 Zn
0.750000 0.583333 0.500000 Zn
0.083333 0.916667 0.500000 Zn
0.416667 0.916667 0.500000 Zn
0.750000 0.916667 0.500000 Zn
0.083333 0.250000 0.833333 Zn
0.416667 0.250000 0.833333 Zn
0.750000 0.250000 0.833333 Zn
0.083333 0.583333 0.833333 Zn
0.416667 0.583333 0.833333 Zn
0.750000 0.583333 0.833333 Zn
0.083333 0.916667 0.833333 Zn
0.416667 0.916667 0.833333 Zn
0.750000 0.916667 0.833333 Zn
0.166667 0.166667 0.000000 Zn
0.500000 0.166667 0.000000 Zn
0.833333 0.166667 0.000000 Zn
0.166667 0.500000 0.000000 Zn
0.291667 0.285690 0.160690 Sn
0.000000 0.000000 0.000000 Sn
0.333333 0.000000 0.000000 Sn
0.666667 0.000000 0.000000 Sn
0.000000 0.333333 0.000000 Sn
0.333333 0.333333 0.000000 Sn
0.666667 0.333333 0.000000 Sn
0.000000 0.666667 0.000000 Sn
0.333333 0.666667 0.000000 Sn
0.666667 0.666667 0.000000 Sn
0.000000 0.000000 0.333333 Sn
0.333333 0.000000 0.333333 Sn
0.666667 0.000000 0.333333 Sn
0.000000 0.333333 0.333333 Sn
0.333333 0.333333 0.333333 Sn
0.666667 0.333333 0.333333 Sn
0.000000 0.666667 0.333333 Sn
0.333333 0.666667 0.333333 Sn
0.666667 0.666667 0.333333 Sn
0.000000 0.000000 0.666667 Sn
0.333333 0.000000 0.666667 Sn
0.666667 0.000000 0.666667 Sn
0.000000 0.333333 0.666667 Sn
0.333333 0.333333 0.666667 Sn
0.666667 0.333333 0.666667 Sn
0.000000 0.666667 0.666667 Sn
0.333333 0.666667 0.666667 Sn
0.666667 0.666667 0.666667 Sn
0.250000 0.083333 0.166667 Sn
0.583333 0.083333 0.166667 Sn
0.916667 0.083333 0.166667 Sn
0.250000 0.416667 0.166667 Sn
0.583333 0.416667 0.166667 Sn
0.916667 0.416667 0.166667 Sn
0.250000 0.750000 0.166667 Sn
0.583333 0.750000 0.166667 Sn
0.916667 0.750000 0.166667 Sn
0.250000 0.083333 0.500000 Sn
0.583333 0.083333 0.500000 Sn
0.916667 0.083333 0.500000 Sn
0.250000 0.416667 0.500000 Sn
0.583333 0.416667 0.500000 Sn
0.916667 0.416667 0.500000 Sn
0.250000 0.750000 0.500000 Sn
0.583333 0.750000 0.500000 Sn
0.916667 0.750000 0.500000 Sn
0.250000 0.083333 0.833333 Sn
0.583333 0.083333 0.833333 Sn
0.916667 0.083333 0.833333 Sn
0.250000 0.416667 0.833333 Sn
0.583333 0.416667 0.833333 Sn
0.916667 0.416667 0.833333 Sn
0.250000 0.750000 0.833333 Sn
0.583333 0.750000 0.833333 Sn
0.916667 0.750000 0.833333 Sn
0.625000 0.285690 0.160690 P
0.958333 0.285690 0.160690 P
0.291667 0.619023 0.160690 P
0.625000 0.619023 0.160690 P
0.958333 0.619023 0.160690 P
0.291667 0.952357 0.160690 P
0.625000 0.952357 0.160690 P
0.958333 0.952357 0.160690 P
0.291667 0.285690 0.494023 P
0.625000 0.285690 0.494023 P
0.958333 0.285690 0.494023 P
0.291667 0.619023 0.494023 P
0.625000 0.619023 0.494023 P
0.958333 0.619023 0.494023 P
0.291667 0.952357 0.494023 P
0.625000 0.952357 0.494023 P
0.958333 0.952357 0.494023 P
0.291667 0.285690 0.827357 P
0.625000 0.285690 0.827357 P
0.958333 0.285690 0.827357 P
0.291667 0.619023 0.827357 P
0.625000 0.619023 0.827357 P
0.958333 0.619023 0.827357 P
0.291667 0.952357 0.827357 P
0.625000 0.952357 0.827357 P
0.958333 0.952357 0.827357 P
0.125000 0.130977 0.172643 P
0.458333 0.130977 0.172643 P
0.791667 0.130977 0.172643 P
0.125000 0.464310 0.172643 P
0.458333 0.464310 0.172643 P
0.791667 0.464310 0.172643 P
0.125000 0.797643 0.172643 P
0.458333 0.797643 0.172643 P
0.791667 0.797643 0.172643 P
0.125000 0.130977 0.505977 P
0.458333 0.130977 0.505977 P
0.791667 0.130977 0.505977 P
0.125000 0.464310 0.505977 P
0.458333 0.464310 0.505977 P
0.791667 0.464310 0.505977 P
0.125000 0.797643 0.505977 P
0.458333 0.797643 0.505977 P
0.791667 0.797643 0.505977 P
0.125000 0.130977 0.839310 P
0.458333 0.130977 0.839310 P
0.791667 0.130977 0.839310 P
0.125000 0.464310 0.839310 P
0.458333 0.464310 0.839310 P
0.791667 0.464310 0.839310 P
0.125000 0.797643 0.839310 P
0.458333 0.797643 0.839310 P
0.791667 0.797643 0.839310 P
0.047643 0.208333 0.005977 P
0.380977 0.208333 0.005977 P
0.714310 0.208333 0.005977 P
0.047643 0.541667 0.005977 P
0.380977 0.541667 0.005977 P
0.714310 0.541667 0.005977 P
0.047643 0.875000 0.005977 P
0.380977 0.875000 0.005977 P
0.714310 0.875000 0.005977 P
0.047643 0.208333 0.339310 P
0.380977 0.208333 0.339310 P
0.714310 0.208333 0.339310 P
0.047643 0.541667 0.339310 P
0.380977 0.541667 0.339310 P
0.714310 0.541667 0.339310 P
0.047643 0.875000 0.339310 P
0.380977 0.875000 0.339310 P
0.714310 0.875000 0.339310 P
0.047643 0.208333 0.672643 P
0.380977 0.208333 0.672643 P
0.714310 0.208333 0.672643 P
0.047643 0.541667 0.672643 P
0.380977 0.541667 0.672643 P
0.714310 0.541667 0.672643 P
0.047643 0.875000 0.672643 P
0.380977 0.875000 0.672643 P
0.714310 0.875000 0.672643 P
0.202357 0.041667 0.327357 P
0.535690 0.041667 0.327357 P
0.869023 0.041667 0.327357 P
0.202357 0.375000 0.327357 P
0.535690 0.375000 0.327357 P
0.869023 0.375000 0.327357 P
0.202357 0.708333 0.327357 P
0.535690 0.708333 0.327357 P
0.869023 0.708333 0.327357 P
0.202357 0.041667 0.660690 P
0.535690 0.041667 0.660690 P
0.869023 0.041667 0.660690 P
0.202357 0.375000 0.660690 P
0.535690 0.375000 0.660690 P
0.869023 0.375000 0.660690 P
0.202357 0.708333 0.660690 P
0.535690 0.708333 0.660690 P
0.869023 0.708333 0.660690 P
0.202357 0.041667 0.994023 P
0.535690 0.041667 0.994023 P
0.869023 0.041667 0.994023 P
0.202357 0.375000 0.994023 P
0.535690 0.375000 0.994023 P
0.869023 0.375000 0.994023 P
0.202357 0.708333 0.994023 P
0.535690 0.708333 0.994023 P
0.869023 0.708333 0.994023 P
