Mg9 O7                                  
   1.00000000000000     
     0.0000000000000000    4.2468930000000000    4.2468930000000000
     4.2468930000000000    0.0000000000000000    4.2468930000000000
     4.2468930000000000    4.2468930000000000    0.0000000000000000
   Mg   O 
     9     7
Direct
  0.2525958393919936  0.2545808616616867  0.2481595743620630
  0.9978204318516077  0.0026369743912582  0.0002085353063208
  0.9812022363188291  0.9856980004274405  0.5176585877824493
  0.9789532704243769  0.5206309156976303  0.9828563802049501
  0.9799118604503363  0.5212766740793029  0.5193073766200058
  0.5163447548402758  0.9834163634404121  0.9814208843757086
  0.5185363550297808  0.9827156191437751  0.5193720245658184
  0.5188313095760719  0.5234490410311849  0.9786039187237137
  0.4977544569576438  0.5027383070220210  0.5003264304744093
  0.2482753984037913  0.2524516570622950  0.7503292736963090
  0.2486035427650535  0.7523389271738239  0.2493593678231463
  0.2484480007088905  0.7527579736635985  0.7505222309747879
  0.7465731031755567  0.2534819843150231  0.2497376620687746
  0.7472173283285386  0.2536832343541278  0.7507677326396092
  0.7478447456900597  0.7528852434850251  0.2506625682243637
  0.7501983660871758  0.7533812230514059  0.7493414521575659
 
  0.00000000E+00  0.00000000E+00  0.00000000E+00
  0.00000000E+00  0.00000000E+00  0.00000000E+00
  0.00000000E+00  0.00000000E+00  0.00000000E+00
  0.00000000E+00  0.00000000E+00  0.00000000E+00
  0.00000000E+00  0.00000000E+00  0.00000000E+00
  0.00000000E+00  0.00000000E+00  0.00000000E+00
  0.00000000E+00  0.00000000E+00  0.00000000E+00
  0.00000000E+00  0.00000000E+00  0.00000000E+00
  0.00000000E+00  0.00000000E+00  0.00000000E+00
  0.00000000E+00  0.00000000E+00  0.00000000E+00
  0.00000000E+00  0.00000000E+00  0.00000000E+00
  0.00000000E+00  0.00000000E+00  0.00000000E+00
  0.00000000E+00  0.00000000E+00  0.00000000E+00
  0.00000000E+00  0.00000000E+00  0.00000000E+00
  0.00000000E+00  0.00000000E+00  0.00000000E+00
  0.00000000E+00  0.00000000E+00  0.00000000E+00
