Mg9 O7                                  
   1.00000000000000     
     0.0000000000000000    4.2468930000000000    4.2468930000000000
     4.2468930000000000    0.0000000000000000    4.2468930000000000
     4.2468930000000000    4.2468930000000000    0.0000000000000000
   Mg   O 
     9     7
Direct
  0.2527461620700322  0.2546194264102226  0.2482126153575877
  0.9976678549996763  0.0026587828471065  0.0003311687434362
  0.9818647376163554  0.9867793939322382  0.5169645873225832
  0.9791323679895427  0.5197775690735824  0.9841794369992130
  0.9813394279034426  0.5202080829161631  0.5188155844427769
  0.5156004168497645  0.9838456682686072  0.9821146288744274
  0.5180184892692452  0.9831883224416131  0.5184968289118075
  0.5179599932514236  0.5232049285652636  0.9784390780652501
  0.4977141248823358  0.5027095902546677  0.5002910264050513
  0.2485072629700582  0.2521684389455601  0.7505332363664436
  0.2489164969449078  0.7522714019368308  0.2491124774136253
  0.2482460978638770  0.7529573793968609  0.7502484719722347
  0.7461220609725174  0.2535960651388365  0.2495620085706918
  0.7471706576794119  0.2539656075689294  0.7508823290489843
  0.7478704144132067  0.7528106547442590  0.2510191480216548
  0.7502344343241987  0.7533616875592486  0.7494313734842208
 
  0.00000000E+00  0.00000000E+00  0.00000000E+00
  0.00000000E+00  0.00000000E+00  0.00000000E+00
  0.00000000E+00  0.00000000E+00  0.00000000E+00
  0.00000000E+00  0.00000000E+00  0.00000000E+00
  0.00000000E+00  0.00000000E+00  0.00000000E+00
  0.00000000E+00  0.00000000E+00  0.00000000E+00
  0.00000000E+00  0.00000000E+00  0.00000000E+00
  0.00000000E+00  0.00000000E+00  0.00000000E+00
  0.00000000E+00  0.00000000E+00  0.00000000E+00
  0.00000000E+00  0.00000000E+00  0.00000000E+00
  0.00000000E+00  0.00000000E+00  0.00000000E+00
  0.00000000E+00  0.00000000E+00  0.00000000E+00
  0.00000000E+00  0.00000000E+00  0.00000000E+00
  0.00000000E+00  0.00000000E+00  0.00000000E+00
  0.00000000E+00  0.00000000E+00  0.00000000E+00
  0.00000000E+00  0.00000000E+00  0.00000000E+00
