Mg9 O7
1.0
0.000000 4.246893 4.246893
4.246893 0.000000 4.246893
4.246893 4.246893 0.000000
Mg O
9 7
direct
0.239132 0.244900 0.268212 Mg
0.000000 0.000000 0.000000 Mg
0.011109 0.031758 0.482620 Mg
0.985756 0.507146 0.007643 Mg
0.009669 0.494623 0.498848 Mg
0.499137 0.000229 0.999996 Mg
0.492906 0.003871 0.502696 Mg
0.491402 0.515596 0.988619 Mg
0.500000 0.500000 0.500000 Mg
0.250000 0.250000 0.750000 O
0.250000 0.750000 0.250000 O
0.250000 0.750000 0.750000 O
0.750000 0.250000 0.250000 O
0.750000 0.250000 0.750000 O
0.750000 0.750000 0.250000 O
0.750000 0.750000 0.750000 O
