Mg31 O32                                
   1.00000000000000     
     8.4194560000000003    0.0000000000000000    0.0000000000000000
     0.0000000000000000    8.4194560000000003    0.0000000000000000
     0.0000000000000000    0.0000000000000000    8.4194560000000003
   Mg   O 
    31    32
Direct
  0.0000000000000000  0.0000000000000000  0.5000000000000000
  0.0000000000000000  0.5000000000000000  0.0000000000000000
  0.0000000000000000  0.5000000000000000  0.5000000000000000
  0.5000000000000000  0.0000000000000000  0.0000000000000000
  0.5000000000000000  0.0000000000000000  0.5000000000000000
  0.5000000000000000  0.5000000000000000  0.0000000000000000
  0.5000000000000000  0.5000000000000000  0.5000000000000000
  0.0000000000000000  0.2439523778766386  0.2439523778766386
  0.0000000000000000  0.2439523778766386  0.7560476221233614
  0.0000000000000000  0.7560476221233614  0.2439523778766386
  0.0000000000000000  0.7560476221233614  0.7560476221233614
  0.5000000000000000  0.2489107096195582  0.2489107096195582
  0.5000000000000000  0.2489107096195582  0.7510892903804418
  0.5000000000000000  0.7510892903804418  0.2489107096195582
  0.5000000000000000  0.7510892903804418  0.7510892903804418
  0.2439523778766386  0.0000000000000000  0.2439523778766386
  0.2439523778766386  0.0000000000000000  0.7560476221233614
  0.2489107096195582  0.5000000000000000  0.2489107096195582
  0.2489107096195582  0.5000000000000000  0.7510892903804418
  0.7560476221233614  0.0000000000000000  0.2439523778766386
  0.7560476221233614  0.0000000000000000  0.7560476221233614
  0.7510892903804418  0.5000000000000000  0.2489107096195582
  0.7510892903804418  0.5000000000000000  0.7510892903804418
  0.2439523778766386  0.2439523778766386  0.0000000000000000
  0.2489107096195582  0.2489107096195582  0.5000000000000000
  0.2439523778766386  0.7560476221233614  0.0000000000000000
  0.2489107096195582  0.7510892903804418  0.5000000000000000
  0.7560476221233614  0.2439523778766386  0.0000000000000000
  0.7510892903804418  0.2489107096195582  0.5000000000000000
  0.7560476221233614  0.7560476221233614  0.0000000000000000
  0.7510892903804418  0.7510892903804418  0.5000000000000000
  0.2640846500090888  0.0000000000000000  0.0000000000000000
  0.2518544177991870  0.0000000000000000  0.5000000000000000
  0.2518544177991870  0.5000000000000000  0.0000000000000000
  0.2508543853678020  0.5000000000000000  0.5000000000000000
  0.7359153499909112  0.0000000000000000  0.0000000000000000
  0.7481455822008130  0.0000000000000000  0.5000000000000000
  0.7481455822008130  0.5000000000000000  0.0000000000000000
  0.7491456146321980  0.5000000000000000  0.5000000000000000
  0.2500310482019259  0.2500310482019259  0.2500310482019259
  0.2500310482019259  0.2500310482019259  0.7499689517980741
  0.2500310482019259  0.7499689517980741  0.2500310482019259
  0.2500310482019259  0.7499689517980741  0.7499689517980741
  0.7499689517980741  0.2500310482019259  0.2500310482019259
  0.7499689517980741  0.2500310482019259  0.7499689517980741
  0.7499689517980741  0.7499689517980741  0.2500310482019259
  0.7499689517980741  0.7499689517980741  0.7499689517980741
  0.0000000000000000  0.0000000000000000  0.2640846500090888
  0.0000000000000000  0.0000000000000000  0.7359153499909112
  0.0000000000000000  0.5000000000000000  0.2518544177991870
  0.0000000000000000  0.5000000000000000  0.7481455822008130
  0.5000000000000000  0.0000000000000000  0.2518544177991870
  0.5000000000000000  0.0000000000000000  0.7481455822008130
  0.5000000000000000  0.5000000000000000  0.2508543853678020
  0.5000000000000000  0.5000000000000000  0.7491456146321980
  0.0000000000000000  0.2640846500090888  0.0000000000000000
  0.0000000000000000  0.2518544177991870  0.5000000000000000
  0.0000000000000000  0.7359153499909112  0.0000000000000000
  0.0000000000000000  0.7481455822008130  0.5000000000000000
  0.5000000000000000  0.2518544177991870  0.0000000000000000
  0.5000000000000000  0.2508543853678020  0.5000000000000000
  0.5000000000000000  0.7481455822008130  0.0000000000000000
  0.5000000000000000  0.7491456146321980  0.5000000000000000
 
  0.00000000E+00  0.00000000E+00  0.00000000E+00
  0.00000000E+00  0.00000000E+00  0.00000000E+00
  0.00000000E+00  0.00000000E+00  0.00000000E+00
  0.00000000E+00  0.00000000E+00  0.00000000E+00
  0.00000000E+00  0.00000000E+00  0.00000000E+00
  0.00000000E+00  0.00000000E+00  0.00000000E+00
  0.00000000E+00  0.00000000E+00  0.00000000E+00
  0.00000000E+00  0.00000000E+00  0.00000000E+00
  0.00000000E+00  0.00000000E+00  0.00000000E+00
  0.00000000E+00  0.00000000E+00  0.00000000E+00
  0.00000000E+00  0.00000000E+00  0.00000000E+00
  0.00000000E+00  0.00000000E+00  0.00000000E+00
  0.00000000E+00  0.00000000E+00  0.00000000E+00
  0.00000000E+00  0.00000000E+00  0.00000000E+00
  0.00000000E+00  0.00000000E+00  0.00000000E+00
  0.00000000E+00  0.00000000E+00  0.00000000E+00
  0.00000000E+00  0.00000000E+00  0.00000000E+00
  0.00000000E+00  0.00000000E+00  0.00000000E+00
  0.00000000E+00  0.00000000E+00  0.00000000E+00
  0.00000000E+00  0.00000000E+00  0.00000000E+00
  0.00000000E+00  0.00000000E+00  0.00000000E+00
  0.00000000E+00  0.00000000E+00  0.00000000E+00
  0.00000000E+00  0.00000000E+00  0.00000000E+00
  0.00000000E+00  0.00000000E+00  0.00000000E+00
  0.00000000E+00  0.00000000E+00  0.00000000E+00
  0.00000000E+00  0.00000000E+00  0.00000000E+00
  0.00000000E+00  0.00000000E+00  0.00000000E+00
  0.00000000E+00  0.00000000E+00  0.00000000E+00
  0.00000000E+00  0.00000000E+00  0.00000000E+00
  0.00000000E+00  0.00000000E+00  0.00000000E+00
  0.00000000E+00  0.00000000E+00  0.00000000E+00
  0.00000000E+00  0.00000000E+00  0.00000000E+00
  0.00000000E+00  0.00000000E+00  0.00000000E+00
  0.00000000E+00  0.00000000E+00  0.00000000E+00
  0.00000000E+00  0.00000000E+00  0.00000000E+00
  0.00000000E+00  0.00000000E+00  0.00000000E+00
  0.00000000E+00  0.00000000E+00  0.00000000E+00
  0.00000000E+00  0.00000000E+00  0.00000000E+00
  0.00000000E+00  0.00000000E+00  0.00000000E+00
  0.00000000E+00  0.00000000E+00  0.00000000E+00
  0.00000000E+00  0.00000000E+00  0.00000000E+00
  0.00000000E+00  0.00000000E+00  0.00000000E+00
  0.00000000E+00  0.00000000E+00  0.00000000E+00
  0.00000000E+00  0.00000000E+00  0.00000000E+00
  0.00000000E+00  0.00000000E+00  0.00000000E+00
  0.00000000E+00  0.00000000E+00  0.00000000E+00
  0.00000000E+00  0.00000000E+00  0.00000000E+00
  0.00000000E+00  0.00000000E+00  0.00000000E+00
  0.00000000E+00  0.00000000E+00  0.00000000E+00
  0.00000000E+00  0.00000000E+00  0.00000000E+00
  0.00000000E+00  0.00000000E+00  0.00000000E+00
  0.00000000E+00  0.00000000E+00  0.00000000E+00
  0.00000000E+00  0.00000000E+00  0.00000000E+00
  0.00000000E+00  0.00000000E+00  0.00000000E+00
  0.00000000E+00  0.00000000E+00  0.00000000E+00
  0.00000000E+00  0.00000000E+00  0.00000000E+00
  0.00000000E+00  0.00000000E+00  0.00000000E+00
  0.00000000E+00  0.00000000E+00  0.00000000E+00
  0.00000000E+00  0.00000000E+00  0.00000000E+00
  0.00000000E+00  0.00000000E+00  0.00000000E+00
  0.00000000E+00  0.00000000E+00  0.00000000E+00
  0.00000000E+00  0.00000000E+00  0.00000000E+00
  0.00000000E+00  0.00000000E+00  0.00000000E+00
