Mg31 O32                                
   1.00000000000000     
     8.4194560000000003    0.0000000000000000    0.0000000000000000
     0.0000000000000000    8.4194560000000003    0.0000000000000000
     0.0000000000000000    0.0000000000000000    8.4194560000000003
   Mg   O 
    31    32
Direct
  0.0000000000000000  0.0000000000000000  0.0000000000000000
  0.0000000000000000  0.5000000000000000  0.0000000000000000
  0.0000000000000000  0.5000000000000000  0.5000000000000000
  0.5000000000000000  0.0000000000000000  0.0000000000000000
  0.5000000000000000  0.0000000000000000  0.5000000000000000
  0.5000000000000000  0.5000000000000000  0.0000000000000000
  0.5000000000000000  0.5000000000000000  0.5000000000000000
  0.0000000000000000  0.2439523778999941  0.2560476221000059
  0.0000000000000000  0.2439523778999941  0.7439523778999941
  0.0000000000000000  0.7560476221000059  0.2560476221000059
  0.0000000000000000  0.7560476221000059  0.7439523778999941
  0.5000000000000000  0.2489107094588547  0.2510892905411453
  0.5000000000000000  0.2489107094588547  0.7489107094588547
  0.5000000000000000  0.7510892905411453  0.2510892905411453
  0.5000000000000000  0.7510892905411453  0.7489107094588547
  0.2439523778999941  0.0000000000000000  0.2560476221000059
  0.2439523778999941  0.0000000000000000  0.7439523778999941
  0.2489107094588547  0.5000000000000000  0.2510892905411453
  0.2489107094588547  0.5000000000000000  0.7489107094588547
  0.7560476221000059  0.0000000000000000  0.2560476221000059
  0.7560476221000059  0.0000000000000000  0.7439523778999941
  0.7510892905411453  0.5000000000000000  0.2510892905411453
  0.7510892905411453  0.5000000000000000  0.7489107094588547
  0.2489107094588547  0.2489107094588547  0.0000000000000000
  0.2439523778999941  0.2439523778999941  0.5000000000000000
  0.2489107094588547  0.7510892905411453  0.0000000000000000
  0.2439523778999941  0.7560476221000059  0.5000000000000000
  0.7510892905411453  0.2489107094588547  0.0000000000000000
  0.7560476221000059  0.2439523778999941  0.5000000000000000
  0.7510892905411453  0.7510892905411453  0.0000000000000000
  0.7560476221000059  0.7560476221000059  0.5000000000000000
  0.2518544179941458  0.0000000000000000  0.0000000000000000
  0.2640846499772280  0.0000000000000000  0.5000000000000000
  0.2508543854572594  0.5000000000000000  0.0000000000000000
  0.2518544179941458  0.5000000000000000  0.5000000000000000
  0.7481455820058542  0.0000000000000000  0.0000000000000000
  0.7359153500227720  0.0000000000000000  0.5000000000000000
  0.7491456145427406  0.5000000000000000  0.0000000000000000
  0.7481455820058542  0.5000000000000000  0.5000000000000000
  0.2500310480990748  0.2500310480990748  0.2499689519009252
  0.2500310480990748  0.2500310480990748  0.7500310480990748
  0.2500310480990748  0.7499689519009252  0.2499689519009252
  0.2500310480990748  0.7499689519009252  0.7500310480990748
  0.7499689519009252  0.2500310480990748  0.2499689519009252
  0.7499689519009252  0.2500310480990748  0.7500310480990748
  0.7499689519009252  0.7499689519009252  0.2499689519009252
  0.7499689519009252  0.7499689519009252  0.7500310480990748
  0.0000000000000000  0.0000000000000000  0.2359153500227720
  0.0000000000000000  0.0000000000000000  0.7640846499772280
  0.0000000000000000  0.5000000000000000  0.2481455820058542
  0.0000000000000000  0.5000000000000000  0.7518544179941458
  0.5000000000000000  0.0000000000000000  0.2481455820058542
  0.5000000000000000  0.0000000000000000  0.7518544179941458
  0.5000000000000000  0.5000000000000000  0.2491456145427406
  0.5000000000000000  0.5000000000000000  0.7508543854572594
  0.0000000000000000  0.2518544179941458  0.0000000000000000
  0.0000000000000000  0.2640846499772280  0.5000000000000000
  0.0000000000000000  0.7481455820058542  0.0000000000000000
  0.0000000000000000  0.7359153500227720  0.5000000000000000
  0.5000000000000000  0.2508543854572594  0.0000000000000000
  0.5000000000000000  0.2518544179941458  0.5000000000000000
  0.5000000000000000  0.7491456145427406  0.0000000000000000
  0.5000000000000000  0.7481455820058542  0.5000000000000000
 
  0.00000000E+00  0.00000000E+00  0.00000000E+00
  0.00000000E+00  0.00000000E+00  0.00000000E+00
  0.00000000E+00  0.00000000E+00  0.00000000E+00
  0.00000000E+00  0.00000000E+00  0.00000000E+00
  0.00000000E+00  0.00000000E+00  0.00000000E+00
  0.00000000E+00  0.00000000E+00  0.00000000E+00
  0.00000000E+00  0.00000000E+00  0.00000000E+00
  0.00000000E+00  0.00000000E+00  0.00000000E+00
  0.00000000E+00  0.00000000E+00  0.00000000E+00
  0.00000000E+00  0.00000000E+00  0.00000000E+00
  0.00000000E+00  0.00000000E+00  0.00000000E+00
  0.00000000E+00  0.00000000E+00  0.00000000E+00
  0.00000000E+00  0.00000000E+00  0.00000000E+00
  0.00000000E+00  0.00000000E+00  0.00000000E+00
  0.00000000E+00  0.00000000E+00  0.00000000E+00
  0.00000000E+00  0.00000000E+00  0.00000000E+00
  0.00000000E+00  0.00000000E+00  0.00000000E+00
  0.00000000E+00  0.00000000E+00  0.00000000E+00
  0.00000000E+00  0.00000000E+00  0.00000000E+00
  0.00000000E+00  0.00000000E+00  0.00000000E+00
  0.00000000E+00  0.00000000E+00  0.00000000E+00
  0.00000000E+00  0.00000000E+00  0.00000000E+00
  0.00000000E+00  0.00000000E+00  0.00000000E+00
  0.00000000E+00  0.00000000E+00  0.00000000E+00
  0.00000000E+00  0.00000000E+00  0.00000000E+00
  0.00000000E+00  0.00000000E+00  0.00000000E+00
  0.00000000E+00  0.00000000E+00  0.00000000E+00
  0.00000000E+00  0.00000000E+00  0.00000000E+00
  0.00000000E+00  0.00000000E+00  0.00000000E+00
  0.00000000E+00  0.00000000E+00  0.00000000E+00
  0.00000000E+00  0.00000000E+00  0.00000000E+00
  0.00000000E+00  0.00000000E+00  0.00000000E+00
  0.00000000E+00  0.00000000E+00  0.00000000E+00
  0.00000000E+00  0.00000000E+00  0.00000000E+00
  0.00000000E+00  0.00000000E+00  0.00000000E+00
  0.00000000E+00  0.00000000E+00  0.00000000E+00
  0.00000000E+00  0.00000000E+00  0.00000000E+00
  0.00000000E+00  0.00000000E+00  0.00000000E+00
  0.00000000E+00  0.00000000E+00  0.00000000E+00
  0.00000000E+00  0.00000000E+00  0.00000000E+00
  0.00000000E+00  0.00000000E+00  0.00000000E+00
  0.00000000E+00  0.00000000E+00  0.00000000E+00
  0.00000000E+00  0.00000000E+00  0.00000000E+00
  0.00000000E+00  0.00000000E+00  0.00000000E+00
  0.00000000E+00  0.00000000E+00  0.00000000E+00
  0.00000000E+00  0.00000000E+00  0.00000000E+00
  0.00000000E+00  0.00000000E+00  0.00000000E+00
  0.00000000E+00  0.00000000E+00  0.00000000E+00
  0.00000000E+00  0.00000000E+00  0.00000000E+00
  0.00000000E+00  0.00000000E+00  0.00000000E+00
  0.00000000E+00  0.00000000E+00  0.00000000E+00
  0.00000000E+00  0.00000000E+00  0.00000000E+00
  0.00000000E+00  0.00000000E+00  0.00000000E+00
  0.00000000E+00  0.00000000E+00  0.00000000E+00
  0.00000000E+00  0.00000000E+00  0.00000000E+00
  0.00000000E+00  0.00000000E+00  0.00000000E+00
  0.00000000E+00  0.00000000E+00  0.00000000E+00
  0.00000000E+00  0.00000000E+00  0.00000000E+00
  0.00000000E+00  0.00000000E+00  0.00000000E+00
  0.00000000E+00  0.00000000E+00  0.00000000E+00
  0.00000000E+00  0.00000000E+00  0.00000000E+00
  0.00000000E+00  0.00000000E+00  0.00000000E+00
  0.00000000E+00  0.00000000E+00  0.00000000E+00
