Generated by ASE. length = ( [16.46245025333885, 20.11645725990898, 20.34247723218201] ), angle=( 90.01854881254914, 90.00403264047026, 93.63214401970201 ), natom= 352
1.0
16.462425 -0.028932 0.001128
-1.239101 20.078259 -0.002488
-0.002833 -0.004252 20.342477
K B S O Cl
16 16 64 192 64
direct
0.567283 0.701207 0.964853 K
0.567283 0.201207 0.464853 K
0.817283 0.201207 0.964853 K
0.817283 0.701207 0.464853 K
1.067283 0.701207 0.964853 K
1.067283 0.201207 0.464853 K
1.317283 0.201207 0.964853 K
1.317283 0.701207 0.464853 K
0.692620 0.951258 0.797209 K
0.692620 0.451258 0.297209 K
0.942620 0.451258 0.797209 K
0.942620 0.951258 0.297209 K
1.192620 0.951258 0.797209 K
1.192620 0.451258 0.297209 K
1.442620 0.451258 0.797209 K
1.442620 0.951258 0.297209 K
0.499425 0.500385 0.500136 B
0.499425 0.000385 0.000136 B
0.749425 0.000385 0.500136 B
0.749425 0.500385 0.000136 B
0.999425 0.500385 0.500136 B
0.999425 0.000385 0.000136 B
1.249425 0.000385 0.500136 B
1.249425 0.500385 0.000136 B
0.374612 0.750301 0.761817 B
0.374612 0.250301 0.261817 B
0.624612 0.250301 0.761817 B
0.624612 0.750301 0.261817 B
0.874612 0.750301 0.761817 B
0.874612 0.250301 0.261817 B
1.124612 0.250301 0.761817 B
1.124612 0.750301 0.261817 B
0.652174 0.970378 0.604194 S
0.652174 0.470378 0.104194 S
0.902174 0.470378 0.604194 S
0.902174 0.970378 0.104194 S
1.152174 0.970378 0.604194 S
1.152174 0.470378 0.104194 S
1.402174 0.470378 0.604194 S
1.402174 0.970378 0.104194 S
0.102038 0.605983 0.529708 S
0.102038 0.105983 0.029708 S
0.352038 0.105983 0.529708 S
0.352038 0.605983 0.029708 S
0.602038 0.605983 0.529708 S
0.602038 0.105983 0.029708 S
0.852038 0.105983 0.529708 S
0.852038 0.605983 0.029708 S
0.648293 0.525747 0.899584 S
0.648293 0.025747 0.399584 S
0.898293 0.025747 0.899584 S
0.898293 0.525747 0.399584 S
1.148293 0.525747 0.899584 S
1.148293 0.025747 0.399584 S
1.398293 0.025747 0.899584 S
1.398293 0.525747 0.399584 S
0.594066 0.899571 0.972017 S
0.594066 0.399571 0.472017 S
0.844066 0.399571 0.972017 S
0.844066 0.899571 0.472017 S
1.094066 0.899571 0.972017 S
1.094066 0.399571 0.472017 S
1.344066 0.399571 0.972017 S
1.344066 0.899571 0.472017 S
0.276765 0.720414 0.658168 S
0.276765 0.220414 0.158168 S
0.526765 0.220414 0.658168 S
0.526765 0.720414 0.158168 S
0.776765 0.720414 0.658168 S
0.776765 0.220414 0.158168 S
1.026765 0.220414 0.658168 S
1.026765 0.720414 0.158168 S
0.477707 0.855461 0.732233 S
0.477707 0.355461 0.232233 S
0.727707 0.355461 0.732233 S
0.727707 0.855461 0.232233 S
0.977707 0.855461 0.732233 S
0.977707 0.355461 0.232233 S
1.227707 0.355461 0.732233 S
1.227707 0.855461 0.232233 S
0.772941 0.775464 0.862092 S
0.772941 0.275464 0.362092 S
1.022941 0.275464 0.862092 S
1.022941 0.775464 0.362092 S
1.272941 0.775464 0.862092 S
1.272941 0.275464 0.362092 S
1.522941 0.275464 0.862092 S
1.522941 0.775464 0.362092 S
0.468949 0.649337 0.790037 S
0.468949 0.149337 0.290037 S
0.718949 0.149337 0.790037 S
0.718949 0.649337 0.290037 S
0.968949 0.649337 0.790037 S
0.968949 0.149337 0.290037 S
1.218949 0.149337 0.790037 S
1.218949 0.649337 0.290037 S
0.451496 0.518541 0.557319 O
0.451496 0.018541 0.057319 O
0.701496 0.018541 0.557319 O
0.701496 0.518541 0.057319 O
0.951496 0.518541 0.557319 O
0.951496 0.018541 0.057319 O
1.201496 0.018541 0.557319 O
1.201496 0.518541 0.057319 O
0.697389 0.962522 0.663636 O
0.697389 0.462522 0.163636 O
0.947389 0.462522 0.663636 O
0.947389 0.962522 0.163636 O
1.197389 0.962522 0.663636 O
1.197389 0.462522 0.163636 O
1.447389 0.462522 0.663636 O
1.447389 0.962522 0.163636 O
0.618695 0.912900 0.569918 O
0.618695 0.412900 0.069918 O
0.868695 0.412900 0.569918 O
0.868695 0.912900 0.069918 O
1.118695 0.912900 0.569918 O
1.118695 0.412900 0.069918 O
1.368695 0.412900 0.569918 O
1.368695 0.912900 0.069918 O
0.302428 0.559146 0.981632 O
0.302428 0.059146 0.481632 O
0.552428 0.059146 0.981632 O
0.552428 0.559146 0.481632 O
0.802428 0.559146 0.981632 O
0.802428 0.059146 0.481632 O
1.052428 0.059146 0.981632 O
1.052428 0.559146 0.481632 O
0.411832 0.643032 0.991115 O
0.411832 0.143032 0.491115 O
0.661832 0.143032 0.991115 O
0.661832 0.643032 0.491115 O
0.911832 0.643032 0.991115 O
0.911832 0.143032 0.491115 O
1.161832 0.143032 0.991115 O
1.161832 0.643032 0.491115 O
0.124693 0.571455 0.587625 O
0.124693 0.071455 0.087625 O
0.374693 0.071455 0.587625 O
0.374693 0.571455 0.087625 O
0.624693 0.571455 0.587625 O
0.624693 0.071455 0.087625 O
0.874693 0.071455 0.587625 O
0.874693 0.571455 0.087625 O
0.949636 0.980174 0.941917 O
0.949636 0.480174 0.441917 O
1.199636 0.480174 0.941917 O
1.199636 0.980174 0.441917 O
1.449636 0.980174 0.941917 O
1.449636 0.480174 0.441917 O
1.699636 0.480174 0.941917 O
1.699636 0.980174 0.441917 O
0.839535 0.983868 0.864740 O
0.839535 0.483868 0.364740 O
1.089535 0.483868 0.864740 O
1.089535 0.983868 0.364740 O
1.339535 0.983868 0.864740 O
1.339535 0.483868 0.364740 O
1.589535 0.483868 0.864740 O
1.589535 0.983868 0.364740 O
0.622523 0.580485 0.937843 O
0.622523 0.080485 0.437843 O
0.872523 0.080485 0.937843 O
0.872523 0.580485 0.437843 O
1.122523 0.580485 0.937843 O
1.122523 0.080485 0.437843 O
1.372523 0.080485 0.937843 O
1.372523 0.580485 0.437843 O
0.294142 0.941901 0.518853 O
0.294142 0.441901 0.018853 O
0.544142 0.441901 0.518853 O
0.544142 0.941901 0.018853 O
0.794142 0.941901 0.518853 O
0.794142 0.441901 0.018853 O
1.044142 0.441901 0.518853 O
1.044142 0.941901 0.018853 O
0.623452 0.938413 0.916953 O
0.623452 0.438413 0.416953 O
0.873452 0.438413 0.916953 O
0.873452 0.938413 0.416953 O
1.123452 0.938413 0.916953 O
1.123452 0.438413 0.416953 O
1.373452 0.438413 0.916953 O
1.373452 0.938413 0.416953 O
0.551437 0.836196 0.961256 O
0.551437 0.336196 0.461256 O
0.801437 0.336196 0.961256 O
0.801437 0.836196 0.461256 O
1.051437 0.836196 0.961256 O
1.051437 0.336196 0.461256 O
1.301437 0.336196 0.961256 O
1.301437 0.836196 0.461256 O
0.326837 0.768644 0.704596 O
0.326837 0.268644 0.204596 O
0.576837 0.268644 0.704596 O
0.576837 0.768644 0.204596 O
0.826837 0.768644 0.704596 O
0.826837 0.268644 0.204596 O
1.076837 0.268644 0.704596 O
1.076837 0.768644 0.204596 O
0.321242 0.712456 0.598316 O
0.321242 0.212456 0.098316 O
0.571242 0.212456 0.598316 O
0.571242 0.712456 0.098316 O
0.821242 0.712456 0.598316 O
0.821242 0.212456 0.098316 O
1.071242 0.212456 0.598316 O
1.071242 0.712456 0.098316 O
0.243597 0.663033 0.692693 O
0.243597 0.163033 0.192693 O
0.493597 0.163033 0.692693 O
0.493597 0.663033 0.192693 O
0.743597 0.663033 0.692693 O
0.743597 0.163033 0.192693 O
0.993597 0.163033 0.692693 O
0.993597 0.663033 0.192693 O
0.427756 0.808926 0.780372 O
0.427756 0.308926 0.280372 O
0.677756 0.308926 0.780372 O
0.677756 0.808926 0.280372 O
0.927756 0.808926 0.780372 O
0.927756 0.308926 0.280372 O
1.177756 0.308926 0.780372 O
1.177756 0.808926 0.280372 O
0.537775 0.892216 0.770766 O
0.537775 0.392216 0.270766 O
0.787775 0.392216 0.770766 O
0.787775 0.892216 0.270766 O
1.037775 0.892216 0.770766 O
1.037775 0.392216 0.270766 O
1.287775 0.392216 0.770766 O
1.287775 0.892216 0.270766 O
0.500046 0.820888 0.674224 O
0.500046 0.320888 0.174224 O
0.750046 0.320888 0.674224 O
0.750046 0.820888 0.174224 O
1.000046 0.820888 0.674224 O
1.000046 0.320888 0.174224 O
1.250046 0.320888 0.674224 O
1.250046 0.820888 0.174224 O
0.324438 0.730016 0.819747 O
0.324438 0.230016 0.319747 O
0.574438 0.230016 0.819747 O
0.574438 0.730016 0.319747 O
0.824438 0.730016 0.819747 O
0.824438 0.230016 0.319747 O
1.074438 0.230016 0.819747 O
1.074438 0.730016 0.319747 O
0.714252 0.733387 0.896721 O
0.714252 0.233387 0.396721 O
0.964252 0.233387 0.896721 O
0.964252 0.733387 0.396721 O
1.214252 0.733387 0.896721 O
1.214252 0.233387 0.396721 O
1.464252 0.233387 0.896721 O
1.464252 0.733387 0.396721 O
0.747170 0.830225 0.824000 O
0.747170 0.330225 0.324000 O
0.997170 0.330225 0.824000 O
0.997170 0.830225 0.324000 O
1.247170 0.830225 0.824000 O
1.247170 0.330225 0.324000 O
1.497170 0.330225 0.824000 O
1.497170 0.830225 0.324000 O
0.419212 0.691696 0.743081 O
0.419212 0.191696 0.243081 O
0.669212 0.191696 0.743081 O
0.669212 0.691696 0.243081 O
0.919212 0.691696 0.743081 O
0.919212 0.191696 0.243081 O
1.169212 0.191696 0.743081 O
1.169212 0.691696 0.243081 O
0.498504 0.688201 0.845067 O
0.498504 0.188201 0.345067 O
0.748504 0.188201 0.845067 O
0.748504 0.688201 0.345067 O
0.998504 0.688201 0.845067 O
0.998504 0.188201 0.345067 O
1.248504 0.188201 0.845067 O
1.248504 0.688201 0.345067 O
0.426171 0.586068 0.801034 O
0.426171 0.086068 0.301034 O
0.676171 0.086068 0.801034 O
0.676171 0.586068 0.301034 O
0.926171 0.586068 0.801034 O
0.926171 0.086068 0.301034 O
1.176171 0.086068 0.801034 O
1.176171 0.586068 0.301034 O
0.311699 0.529567 0.625788 Cl
0.311699 0.029567 0.125788 Cl
0.561699 0.029567 0.625788 Cl
0.561699 0.529567 0.125788 Cl
0.811699 0.529567 0.625788 Cl
0.811699 0.029567 0.125788 Cl
1.061699 0.029567 0.625788 Cl
1.061699 0.529567 0.125788 Cl
0.519047 0.671150 0.556956 Cl
0.519047 0.171150 0.056956 Cl
0.769047 0.171150 0.556956 Cl
0.769047 0.671150 0.056956 Cl
1.019047 0.671150 0.556956 Cl
1.019047 0.171150 0.056956 Cl
1.269047 0.171150 0.556956 Cl
1.269047 0.671150 0.056956 Cl
0.229592 0.562886 0.833177 Cl
0.229592 0.062886 0.333177 Cl
0.479592 0.062886 0.833177 Cl
0.479592 0.562886 0.333177 Cl
0.729592 0.562886 0.833177 Cl
0.729592 0.062886 0.333177 Cl
0.979592 0.062886 0.833177 Cl
0.979592 0.562886 0.333177 Cl
0.439071 0.883789 0.530351 Cl
0.439071 0.383789 0.030351 Cl
0.689071 0.383789 0.530351 Cl
0.689071 0.883789 0.030351 Cl
0.939071 0.883789 0.530351 Cl
0.939071 0.383789 0.030351 Cl
1.189071 0.383789 0.530351 Cl
1.189071 0.883789 0.030351 Cl
0.686132 0.779601 0.637237 Cl
0.686132 0.279601 0.137237 Cl
0.936132 0.279601 0.637237 Cl
0.936132 0.779601 0.137237 Cl
1.186132 0.779601 0.637237 Cl
1.186132 0.279601 0.137237 Cl
1.436132 0.279601 0.637237 Cl
1.436132 0.779601 0.137237 Cl
0.395066 0.920934 0.705392 Cl
0.395066 0.420934 0.205392 Cl
0.645066 0.420934 0.705392 Cl
0.645066 0.920934 0.205392 Cl
0.895066 0.920934 0.705392 Cl
0.895066 0.420934 0.205392 Cl
1.145066 0.420934 0.705392 Cl
1.145066 0.920934 0.205392 Cl
0.853670 0.812456 0.928908 Cl
0.853670 0.312456 0.428908 Cl
1.103670 0.312456 0.928908 Cl
1.103670 0.812456 0.428908 Cl
1.353670 0.812456 0.928908 Cl
1.353670 0.312456 0.428908 Cl
1.603670 0.312456 0.928908 Cl
1.603670 0.812456 0.428908 Cl
0.563917 0.633274 0.731817 Cl
0.563917 0.133274 0.231817 Cl
0.813917 0.133274 0.731817 Cl
0.813917 0.633274 0.231817 Cl
1.063917 0.633274 0.731817 Cl
1.063917 0.133274 0.231817 Cl
1.313917 0.133274 0.731817 Cl
1.313917 0.633274 0.231817 Cl

0.000000 0.000000 0.000000
0.000000 0.000000 0.000000
0.000000 0.000000 0.000000
0.000000 0.000000 0.000000
0.000000 0.000000 0.000000
0.000000 0.000000 0.000000
0.000000 0.000000 0.000000
0.000000 0.000000 0.000000
0.000000 0.000000 0.000000
0.000000 0.000000 0.000000
0.000000 0.000000 0.000000
0.000000 0.000000 0.000000
0.000000 0.000000 0.000000
0.000000 0.000000 0.000000
0.000000 0.000000 0.000000
0.000000 0.000000 0.000000
0.000000 0.000000 0.000000
0.000000 0.000000 0.000000
0.000000 0.000000 0.000000
0.000000 0.000000 0.000000
0.000000 0.000000 0.000000
0.000000 0.000000 0.000000
0.000000 0.000000 0.000000
0.000000 0.000000 0.000000
0.000000 0.000000 0.000000
0.000000 0.000000 0.000000
0.000000 0.000000 0.000000
0.000000 0.000000 0.000000
0.000000 0.000000 0.000000
0.000000 0.000000 0.000000
0.000000 0.000000 0.000000
0.000000 0.000000 0.000000
0.000000 0.000000 0.000000
0.000000 0.000000 0.000000
0.000000 0.000000 0.000000
0.000000 0.000000 0.000000
0.000000 0.000000 0.000000
0.000000 0.000000 0.000000
0.000000 0.000000 0.000000
0.000000 0.000000 0.000000
0.000000 0.000000 0.000000
0.000000 0.000000 0.000000
0.000000 0.000000 0.000000
0.000000 0.000000 0.000000
0.000000 0.000000 0.000000
0.000000 0.000000 0.000000
0.000000 0.000000 0.000000
0.000000 0.000000 0.000000
0.000000 0.000000 0.000000
0.000000 0.000000 0.000000
0.000000 0.000000 0.000000
0.000000 0.000000 0.000000
0.000000 0.000000 0.000000
0.000000 0.000000 0.000000
0.000000 0.000000 0.000000
0.000000 0.000000 0.000000
0.000000 0.000000 0.000000
0.000000 0.000000 0.000000
0.000000 0.000000 0.000000
0.000000 0.000000 0.000000
0.000000 0.000000 0.000000
0.000000 0.000000 0.000000
0.000000 0.000000 0.000000
0.000000 0.000000 0.000000
0.000000 0.000000 0.000000
0.000000 0.000000 0.000000
0.000000 0.000000 0.000000
0.000000 0.000000 0.000000
0.000000 0.000000 0.000000
0.000000 0.000000 0.000000
0.000000 0.000000 0.000000
0.000000 0.000000 0.000000
0.000000 0.000000 0.000000
0.000000 0.000000 0.000000
0.000000 0.000000 0.000000
0.000000 0.000000 0.000000
0.000000 0.000000 0.000000
0.000000 0.000000 0.000000
0.000000 0.000000 0.000000
0.000000 0.000000 0.000000
0.000000 0.000000 0.000000
0.000000 0.000000 0.000000
0.000000 0.000000 0.000000
0.000000 0.000000 0.000000
0.000000 0.000000 0.000000
0.000000 0.000000 0.000000
0.000000 0.000000 0.000000
0.000000 0.000000 0.000000
0.000000 0.000000 0.000000
0.000000 0.000000 0.000000
0.000000 0.000000 0.000000
0.000000 0.000000 0.000000
0.000000 0.000000 0.000000
0.000000 0.000000 0.000000
0.000000 0.000000 0.000000
0.000000 0.000000 0.000000
0.000000 0.000000 0.000000
0.000000 0.000000 0.000000
0.000000 0.000000 0.000000
0.000000 0.000000 0.000000
0.000000 0.000000 0.000000
0.000000 0.000000 0.000000
0.000000 0.000000 0.000000
0.000000 0.000000 0.000000
0.000000 0.000000 0.000000
0.000000 0.000000 0.000000
0.000000 0.000000 0.000000
0.000000 0.000000 0.000000
0.000000 0.000000 0.000000
0.000000 0.000000 0.000000
0.000000 0.000000 0.000000
0.000000 0.000000 0.000000
0.000000 0.000000 0.000000
0.000000 0.000000 0.000000
0.000000 0.000000 0.000000
0.000000 0.000000 0.000000
0.000000 0.000000 0.000000
0.000000 0.000000 0.000000
0.000000 0.000000 0.000000
0.000000 0.000000 0.000000
0.000000 0.000000 0.000000
0.000000 0.000000 0.000000
0.000000 0.000000 0.000000
0.000000 0.000000 0.000000
0.000000 0.000000 0.000000
0.000000 0.000000 0.000000
0.000000 0.000000 0.000000
0.000000 0.000000 0.000000
0.000000 0.000000 0.000000
0.000000 0.000000 0.000000
0.000000 0.000000 0.000000
0.000000 0.000000 0.000000
0.000000 0.000000 0.000000
0.000000 0.000000 0.000000
0.000000 0.000000 0.000000
0.000000 0.000000 0.000000
0.000000 0.000000 0.000000
0.000000 0.000000 0.000000
0.000000 0.000000 0.000000
0.000000 0.000000 0.000000
0.000000 0.000000 0.000000
0.000000 0.000000 0.000000
0.000000 0.000000 0.000000
0.000000 0.000000 0.000000
0.000000 0.000000 0.000000
0.000000 0.000000 0.000000
0.000000 0.000000 0.000000
0.000000 0.000000 0.000000
0.000000 0.000000 0.000000
0.000000 0.000000 0.000000
0.000000 0.000000 0.000000
0.000000 0.000000 0.000000
0.000000 0.000000 0.000000
0.000000 0.000000 0.000000
0.000000 0.000000 0.000000
0.000000 0.000000 0.000000
0.000000 0.000000 0.000000
0.000000 0.000000 0.000000
0.000000 0.000000 0.000000
0.000000 0.000000 0.000000
0.000000 0.000000 0.000000
0.000000 0.000000 0.000000
0.000000 0.000000 0.000000
0.000000 0.000000 0.000000
0.000000 0.000000 0.000000
0.000000 0.000000 0.000000
0.000000 0.000000 0.000000
0.000000 0.000000 0.000000
0.000000 0.000000 0.000000
0.000000 0.000000 0.000000
0.000000 0.000000 0.000000
0.000000 0.000000 0.000000
0.000000 0.000000 0.000000
0.000000 0.000000 0.000000
0.000000 0.000000 0.000000
0.000000 0.000000 0.000000
0.000000 0.000000 0.000000
0.000000 0.000000 0.000000
0.000000 0.000000 0.000000
0.000000 0.000000 0.000000
0.000000 0.000000 0.000000
0.000000 0.000000 0.000000
0.000000 0.000000 0.000000
0.000000 0.000000 0.000000
0.000000 0.000000 0.000000
0.000000 0.000000 0.000000
0.000000 0.000000 0.000000
0.000000 0.000000 0.000000
0.000000 0.000000 0.000000
0.000000 0.000000 0.000000
0.000000 0.000000 0.000000
0.000000 0.000000 0.000000
0.000000 0.000000 0.000000
0.000000 0.000000 0.000000
0.000000 0.000000 0.000000
0.000000 0.000000 0.000000
0.000000 0.000000 0.000000
0.000000 0.000000 0.000000
0.000000 0.000000 0.000000
0.000000 0.000000 0.000000
0.000000 0.000000 0.000000
0.000000 0.000000 0.000000
0.000000 0.000000 0.000000
0.000000 0.000000 0.000000
0.000000 0.000000 0.000000
0.000000 0.000000 0.000000
0.000000 0.000000 0.000000
0.000000 0.000000 0.000000
0.000000 0.000000 0.000000
0.000000 0.000000 0.000000
0.000000 0.000000 0.000000
0.000000 0.000000 0.000000
0.000000 0.000000 0.000000
0.000000 0.000000 0.000000
0.000000 0.000000 0.000000
0.000000 0.000000 0.000000
0.000000 0.000000 0.000000
0.000000 0.000000 0.000000
0.000000 0.000000 0.000000
0.000000 0.000000 0.000000
0.000000 0.000000 0.000000
0.000000 0.000000 0.000000
0.000000 0.000000 0.000000
0.000000 0.000000 0.000000
0.000000 0.000000 0.000000
0.000000 0.000000 0.000000
0.000000 0.000000 0.000000
0.000000 0.000000 0.000000
0.000000 0.000000 0.000000
0.000000 0.000000 0.000000
0.000000 0.000000 0.000000
0.000000 0.000000 0.000000
0.000000 0.000000 0.000000
0.000000 0.000000 0.000000
0.000000 0.000000 0.000000
0.000000 0.000000 0.000000
0.000000 0.000000 0.000000
0.000000 0.000000 0.000000
0.000000 0.000000 0.000000
0.000000 0.000000 0.000000
0.000000 0.000000 0.000000
0.000000 0.000000 0.000000
0.000000 0.000000 0.000000
0.000000 0.000000 0.000000
0.000000 0.000000 0.000000
0.000000 0.000000 0.000000
0.000000 0.000000 0.000000
0.000000 0.000000 0.000000
0.000000 0.000000 0.000000
0.000000 0.000000 0.000000
0.000000 0.000000 0.000000
0.000000 0.000000 0.000000
0.000000 0.000000 0.000000
0.000000 0.000000 0.000000
0.000000 0.000000 0.000000
0.000000 0.000000 0.000000
0.000000 0.000000 0.000000
0.000000 0.000000 0.000000
0.000000 0.000000 0.000000
0.000000 0.000000 0.000000
0.000000 0.000000 0.000000
0.000000 0.000000 0.000000
0.000000 0.000000 0.000000
0.000000 0.000000 0.000000
0.000000 0.000000 0.000000
0.000000 0.000000 0.000000
0.000000 0.000000 0.000000
0.000000 0.000000 0.000000
0.000000 0.000000 0.000000
0.000000 0.000000 0.000000
0.000000 0.000000 0.000000
0.000000 0.000000 0.000000
0.000000 0.000000 0.000000
0.000000 0.000000 0.000000
0.000000 0.000000 0.000000
0.000000 0.000000 0.000000
0.000000 0.000000 0.000000
0.000000 0.000000 0.000000
0.000000 0.000000 0.000000
0.000000 0.000000 0.000000
0.000000 0.000000 0.000000
0.000000 0.000000 0.000000
0.000000 0.000000 0.000000
0.000000 0.000000 0.000000
0.000000 0.000000 0.000000
0.000000 0.000000 0.000000
0.000000 0.000000 0.000000
0.000000 0.000000 0.000000
0.000000 0.000000 0.000000
0.000000 0.000000 0.000000
0.000000 0.000000 0.000000
0.000000 0.000000 0.000000
0.000000 0.000000 0.000000
0.000000 0.000000 0.000000
0.000000 0.000000 0.000000
0.000000 0.000000 0.000000
0.000000 0.000000 0.000000
0.000000 0.000000 0.000000
0.000000 0.000000 0.000000
0.000000 0.000000 0.000000
0.000000 0.000000 0.000000
0.000000 0.000000 0.000000
0.000000 0.000000 0.000000
0.000000 0.000000 0.000000
0.000000 0.000000 0.000000
0.000000 0.000000 0.000000
0.000000 0.000000 0.000000
0.000000 0.000000 0.000000
0.000000 0.000000 0.000000
0.000000 0.000000 0.000000
0.000000 0.000000 0.000000
0.000000 0.000000 0.000000
0.000000 0.000000 0.000000
0.000000 0.000000 0.000000
0.000000 0.000000 0.000000
0.000000 0.000000 0.000000
0.000000 0.000000 0.000000
0.000000 0.000000 0.000000
0.000000 0.000000 0.000000
0.000000 0.000000 0.000000
0.000000 0.000000 0.000000
0.000000 0.000000 0.000000
0.000000 0.000000 0.000000
0.000000 0.000000 0.000000
0.000000 0.000000 0.000000
0.000000 0.000000 0.000000
0.000000 0.000000 0.000000
0.000000 0.000000 0.000000
0.000000 0.000000 0.000000
0.000000 0.000000 0.000000
0.000000 0.000000 0.000000
0.000000 0.000000 0.000000
0.000000 0.000000 0.000000
0.000000 0.000000 0.000000
0.000000 0.000000 0.000000
0.000000 0.000000 0.000000
0.000000 0.000000 0.000000
0.000000 0.000000 0.000000
0.000000 0.000000 0.000000
0.000000 0.000000 0.000000
0.000000 0.000000 0.000000
0.000000 0.000000 0.000000
0.000000 0.000000 0.000000
0.000000 0.000000 0.000000
0.000000 0.000000 0.000000
0.000000 0.000000 0.000000
0.000000 0.000000 0.000000
0.000000 0.000000 0.000000
0.000000 0.000000 0.000000
0.000000 0.000000 0.000000
0.000000 0.000000 0.000000
0.000000 0.000000 0.000000
