K B S O Cl                              
   1.00000000000000     
     8.2312123957364491   -0.0144659677200816    0.0005638852997349
     3.4960555703458995   10.0318963929758187   -0.0009620525755556
     4.1141897911858729   -0.0093591093280654   10.1715202379039624
   K    B    S    O    Cl
     2     2     8    24     8
Direct
  0.4685055147085038  0.4024131601433467  0.9297061369201955
  0.6367739048110792  0.9025153853707053  0.5944177654060780
  0.9983286006661558  0.0007705737616064  0.0002714302374187
  0.2371059163541034  0.5006028763066723  0.5236339667211425
  0.7297771369714852  0.9407551086941268  0.2083885334599316
  0.0683849919266493  0.2119659496697182  0.0594162696605878
  0.8712565616243921  0.0514931350058703  0.7991675573849051
  0.3165437525761376  0.7991421092437534  0.9440342746867501
  0.1749483370074287  0.4408277855773619  0.3163351119585656
  0.3677209031950994  0.7109213156393110  0.4644652605250528
  0.9083252909139432  0.5509276028319050  0.7241844071165389
  0.4985231207848244  0.2986747823986420  0.5800743651842950
  0.8271331799370785  0.0370818679639839  0.1146377421268454
  0.7686195133858718  0.9250441105512124  0.3272724301643919
  0.7545729239259202  0.8257990764285665  0.1398361663897987
  0.0640776561196859  0.1182918259191794  0.9632640917495792
  0.1895166393918757  0.2860647407547390  0.9822306020034759
  0.0903052973955525  0.1429099217803085  0.1752497801037549
  0.9771797418902679  0.9603488585300681  0.8838343002400464
  0.8304621324866872  0.9677365440973063  0.7294809016305166
  0.7267190512907646  0.1609692882260916  0.8756865450624929
  0.1275297078713322  0.8838024520184788  0.0377059858734654
  0.3915387887372717  0.8768256281279676  0.8339065073491412
  0.3054226858449169  0.6723912614606036  0.9225115225361762
  0.1804332430114215  0.5372885480251526  0.4091927169287217
  0.3317129755605350  0.4249124172250021  0.1966311026608878
  0.1314676750083592  0.3260653942648233  0.3853868102045581
  0.2662137623928587  0.6178516617045489  0.5607432018033620
  0.4125688628735489  0.7844325074747474  0.5415313782495872
  0.5049794885367049  0.6417750658174910  0.3484484244772545
  0.0991117588833035  0.4600327078683364  0.6394940417181729
  0.7983959420047313  0.4667734768312712  0.7934413341588424
  0.8401136556214013  0.6604509246956667  0.6479999550923736
  0.4036474566947064  0.3833911986701466  0.4861626533729364
  0.4637417494968616  0.3764011755860395  0.6901331668514530
  0.4652399287575406  0.1721356265212464  0.6020689831662480
  0.4680427260937137  0.0591336166473511  0.2515765299696326
  0.8099879458141217  0.3423001542281554  0.1139117022579441
  0.0631202694910016  0.1257725858559269  0.6663533871707443
  0.4640014138157227  0.7675781871177207  0.0607027481729290
  0.9554250346305508  0.5592015420771190  0.2744745541775870
  0.1638059612235594  0.8418676792160298  0.4107838361370426
  0.9659761312195698  0.6249123645018670  0.8578168564707767
  0.7627426690528409  0.2665478051696368  0.4636349624677010
 
  0.00000000E+00  0.00000000E+00  0.00000000E+00
  0.00000000E+00  0.00000000E+00  0.00000000E+00
  0.00000000E+00  0.00000000E+00  0.00000000E+00
  0.00000000E+00  0.00000000E+00  0.00000000E+00
  0.00000000E+00  0.00000000E+00  0.00000000E+00
  0.00000000E+00  0.00000000E+00  0.00000000E+00
  0.00000000E+00  0.00000000E+00  0.00000000E+00
  0.00000000E+00  0.00000000E+00  0.00000000E+00
  0.00000000E+00  0.00000000E+00  0.00000000E+00
  0.00000000E+00  0.00000000E+00  0.00000000E+00
  0.00000000E+00  0.00000000E+00  0.00000000E+00
  0.00000000E+00  0.00000000E+00  0.00000000E+00
  0.00000000E+00  0.00000000E+00  0.00000000E+00
  0.00000000E+00  0.00000000E+00  0.00000000E+00
  0.00000000E+00  0.00000000E+00  0.00000000E+00
  0.00000000E+00  0.00000000E+00  0.00000000E+00
  0.00000000E+00  0.00000000E+00  0.00000000E+00
  0.00000000E+00  0.00000000E+00  0.00000000E+00
  0.00000000E+00  0.00000000E+00  0.00000000E+00
  0.00000000E+00  0.00000000E+00  0.00000000E+00
  0.00000000E+00  0.00000000E+00  0.00000000E+00
  0.00000000E+00  0.00000000E+00  0.00000000E+00
  0.00000000E+00  0.00000000E+00  0.00000000E+00
  0.00000000E+00  0.00000000E+00  0.00000000E+00
  0.00000000E+00  0.00000000E+00  0.00000000E+00
  0.00000000E+00  0.00000000E+00  0.00000000E+00
  0.00000000E+00  0.00000000E+00  0.00000000E+00
  0.00000000E+00  0.00000000E+00  0.00000000E+00
  0.00000000E+00  0.00000000E+00  0.00000000E+00
  0.00000000E+00  0.00000000E+00  0.00000000E+00
  0.00000000E+00  0.00000000E+00  0.00000000E+00
  0.00000000E+00  0.00000000E+00  0.00000000E+00
  0.00000000E+00  0.00000000E+00  0.00000000E+00
  0.00000000E+00  0.00000000E+00  0.00000000E+00
  0.00000000E+00  0.00000000E+00  0.00000000E+00
  0.00000000E+00  0.00000000E+00  0.00000000E+00
  0.00000000E+00  0.00000000E+00  0.00000000E+00
  0.00000000E+00  0.00000000E+00  0.00000000E+00
  0.00000000E+00  0.00000000E+00  0.00000000E+00
  0.00000000E+00  0.00000000E+00  0.00000000E+00
  0.00000000E+00  0.00000000E+00  0.00000000E+00
  0.00000000E+00  0.00000000E+00  0.00000000E+00
  0.00000000E+00  0.00000000E+00  0.00000000E+00
  0.00000000E+00  0.00000000E+00  0.00000000E+00
