ENCUT = 550
PREC = N ; LREAL = A
LASPH = .TRUE.

ISIF = 3 ; EDIFF = 1.0e-07 ; EDIFFG = -0.005

IBRION = 8
NSW = 1
ISMEAR = 0 ; SIGMA = 0.05
NELM = 100 ; NELMIN = 4
ALGO = N

LWAVE = .FALSE.
LCHARG = .FALSE.
LORBIT = 12
#NPAR = 2
#KPAR = 16

LEPSILON = .TRUE.
LRPA = .FALSE.
