k-point mesh distance .054150
0
G
12 12 12
0. 0. 0. 
