Mg33 O32                                
   1.00000000000000     
     8.4194560000000003    0.0000000000000000    0.0000000000000000
     0.0000000000000000    8.4194560000000003    0.0000000000000000
     0.0000000000000000    0.0000000000000000    8.4194560000000003
   Mg   O 
    33    32
Direct
  0.1250000000000000  0.1250000000000000  0.1250000000000000
  0.9685798923944660  0.9685798923944660  0.9685798923944660
  0.9992359247071647  0.9992359247071647  0.5010604297857384
  0.9992359247071647  0.5010604297857384  0.9992359247071647
  0.9994491193324038  0.5057947691803122  0.5057947691803122
  0.5010604297857384  0.9992359247071647  0.9992359247071647
  0.5057947691803122  0.9994491193324038  0.5057947691803122
  0.5057947691803122  0.5057947691803122  0.9994491193324038
  0.5002282758511782  0.5002282758511782  0.5002282758511782
  0.9685798923944660  0.2814201076055340  0.2814201076055340
  0.9992359247071647  0.2507640752928353  0.7489395702142616
  0.9992359247071647  0.7489395702142616  0.2507640752928353
  0.9994491193324038  0.7442052308196878  0.7442052308196878
  0.5010604297857384  0.2507640752928353  0.2507640752928353
  0.5057947691803122  0.2505508806675962  0.7442052308196878
  0.5057947691803122  0.7442052308196878  0.2505508806675962
  0.5002282758511782  0.7497717241488218  0.7497717241488218
  0.2814201076055340  0.9685798923944660  0.2814201076055340
  0.2507640752928353  0.9992359247071647  0.7489395702142616
  0.2507640752928353  0.5010604297857384  0.2507640752928353
  0.2505508806675962  0.5057947691803122  0.7442052308196878
  0.7489395702142616  0.9992359247071647  0.2507640752928353
  0.7442052308196878  0.9994491193324038  0.7442052308196878
  0.7442052308196878  0.5057947691803122  0.2505508806675962
  0.7497717241488218  0.5002282758511782  0.7497717241488218
  0.2814201076055340  0.2814201076055340  0.9685798923944660
  0.2507640752928353  0.2507640752928353  0.5010604297857384
  0.2507640752928353  0.7489395702142616  0.9992359247071647
  0.2505508806675962  0.7442052308196878  0.5057947691803122
  0.7489395702142616  0.2507640752928353  0.9992359247071647
  0.7442052308196878  0.2505508806675962  0.5057947691803122
  0.7442052308196878  0.7442052308196878  0.9994491193324038
  0.7497717241488218  0.7497717241488218  0.5002282758511782
  0.2525800973264580  0.9974199026735420  0.9974199026735420
  0.2523016014200437  0.9976983985799563  0.5067668476471212
  0.2523016014200437  0.5067668476471212  0.9976983985799563
  0.2495206681682092  0.4996619758472036  0.4996619758472036
  0.7432331523528788  0.9976983985799563  0.9976983985799563
  0.7503380241527964  0.0004793318317908  0.4996619758472036
  0.7503380241527964  0.4996619758472036  0.0004793318317908
  0.7500186242106111  0.4999813757893889  0.4999813757893889
  0.2525800973264580  0.2525800973264580  0.2525800973264580
  0.2523016014200437  0.2523016014200437  0.7432331523528788
  0.2523016014200437  0.7432331523528788  0.2523016014200437
  0.2495206681682092  0.7503380241527964  0.7503380241527964
  0.7432331523528788  0.2523016014200437  0.2523016014200437
  0.7503380241527964  0.2495206681682092  0.7503380241527964
  0.7503380241527964  0.7503380241527964  0.2495206681682092
  0.7500186242106111  0.7500186242106111  0.7500186242106111
  0.9974199026735420  0.9974199026735420  0.2525800973264580
  0.9976983985799563  0.9976983985799563  0.7432331523528788
  0.9976983985799563  0.5067668476471212  0.2523016014200437
  0.0004793318317908  0.4996619758472036  0.7503380241527964
  0.5067668476471212  0.9976983985799563  0.2523016014200437
  0.4996619758472036  0.0004793318317908  0.7503380241527964
  0.4996619758472036  0.4996619758472036  0.2495206681682092
  0.4999813757893889  0.4999813757893889  0.7500186242106111
  0.9974199026735420  0.2525800973264580  0.9974199026735420
  0.9976983985799563  0.2523016014200437  0.5067668476471212
  0.9976983985799563  0.7432331523528788  0.9976983985799563
  0.0004793318317908  0.7503380241527964  0.4996619758472036
  0.5067668476471212  0.2523016014200437  0.9976983985799563
  0.4996619758472036  0.2495206681682092  0.4996619758472036
  0.4996619758472036  0.7503380241527964  0.0004793318317908
  0.4999813757893889  0.7500186242106111  0.4999813757893889
 
  0.00000000E+00  0.00000000E+00  0.00000000E+00
  0.00000000E+00  0.00000000E+00  0.00000000E+00
  0.00000000E+00  0.00000000E+00  0.00000000E+00
  0.00000000E+00  0.00000000E+00  0.00000000E+00
  0.00000000E+00  0.00000000E+00  0.00000000E+00
  0.00000000E+00  0.00000000E+00  0.00000000E+00
  0.00000000E+00  0.00000000E+00  0.00000000E+00
  0.00000000E+00  0.00000000E+00  0.00000000E+00
  0.00000000E+00  0.00000000E+00  0.00000000E+00
  0.00000000E+00  0.00000000E+00  0.00000000E+00
  0.00000000E+00  0.00000000E+00  0.00000000E+00
  0.00000000E+00  0.00000000E+00  0.00000000E+00
  0.00000000E+00  0.00000000E+00  0.00000000E+00
  0.00000000E+00  0.00000000E+00  0.00000000E+00
  0.00000000E+00  0.00000000E+00  0.00000000E+00
  0.00000000E+00  0.00000000E+00  0.00000000E+00
  0.00000000E+00  0.00000000E+00  0.00000000E+00
  0.00000000E+00  0.00000000E+00  0.00000000E+00
  0.00000000E+00  0.00000000E+00  0.00000000E+00
  0.00000000E+00  0.00000000E+00  0.00000000E+00
  0.00000000E+00  0.00000000E+00  0.00000000E+00
  0.00000000E+00  0.00000000E+00  0.00000000E+00
  0.00000000E+00  0.00000000E+00  0.00000000E+00
  0.00000000E+00  0.00000000E+00  0.00000000E+00
  0.00000000E+00  0.00000000E+00  0.00000000E+00
  0.00000000E+00  0.00000000E+00  0.00000000E+00
  0.00000000E+00  0.00000000E+00  0.00000000E+00
  0.00000000E+00  0.00000000E+00  0.00000000E+00
  0.00000000E+00  0.00000000E+00  0.00000000E+00
  0.00000000E+00  0.00000000E+00  0.00000000E+00
  0.00000000E+00  0.00000000E+00  0.00000000E+00
  0.00000000E+00  0.00000000E+00  0.00000000E+00
  0.00000000E+00  0.00000000E+00  0.00000000E+00
  0.00000000E+00  0.00000000E+00  0.00000000E+00
  0.00000000E+00  0.00000000E+00  0.00000000E+00
  0.00000000E+00  0.00000000E+00  0.00000000E+00
  0.00000000E+00  0.00000000E+00  0.00000000E+00
  0.00000000E+00  0.00000000E+00  0.00000000E+00
  0.00000000E+00  0.00000000E+00  0.00000000E+00
  0.00000000E+00  0.00000000E+00  0.00000000E+00
  0.00000000E+00  0.00000000E+00  0.00000000E+00
  0.00000000E+00  0.00000000E+00  0.00000000E+00
  0.00000000E+00  0.00000000E+00  0.00000000E+00
  0.00000000E+00  0.00000000E+00  0.00000000E+00
  0.00000000E+00  0.00000000E+00  0.00000000E+00
  0.00000000E+00  0.00000000E+00  0.00000000E+00
  0.00000000E+00  0.00000000E+00  0.00000000E+00
  0.00000000E+00  0.00000000E+00  0.00000000E+00
  0.00000000E+00  0.00000000E+00  0.00000000E+00
  0.00000000E+00  0.00000000E+00  0.00000000E+00
  0.00000000E+00  0.00000000E+00  0.00000000E+00
  0.00000000E+00  0.00000000E+00  0.00000000E+00
  0.00000000E+00  0.00000000E+00  0.00000000E+00
  0.00000000E+00  0.00000000E+00  0.00000000E+00
  0.00000000E+00  0.00000000E+00  0.00000000E+00
  0.00000000E+00  0.00000000E+00  0.00000000E+00
  0.00000000E+00  0.00000000E+00  0.00000000E+00
  0.00000000E+00  0.00000000E+00  0.00000000E+00
  0.00000000E+00  0.00000000E+00  0.00000000E+00
  0.00000000E+00  0.00000000E+00  0.00000000E+00
  0.00000000E+00  0.00000000E+00  0.00000000E+00
  0.00000000E+00  0.00000000E+00  0.00000000E+00
  0.00000000E+00  0.00000000E+00  0.00000000E+00
  0.00000000E+00  0.00000000E+00  0.00000000E+00
  0.00000000E+00  0.00000000E+00  0.00000000E+00
