Mg33 O32                                
   1.00000000000000     
     8.4194560000000003    0.0000000000000000    0.0000000000000000
     0.0000000000000000    8.4194560000000003    0.0000000000000000
     0.0000000000000000    0.0000000000000000    8.4194560000000003
   Mg   O 
    33    32
Direct
  0.1250000000000000  0.1250000000000000  0.1250000000000000
  0.9685798924188376  0.9685798924188376  0.9685798924188376
  0.9992359247064329  0.9992359247064329  0.5010604297917780
  0.9992359247064329  0.5010604297917780  0.9992359247064329
  0.9994491193281263  0.5057947691687588  0.5057947691687588
  0.5010604297917780  0.9992359247064329  0.9992359247064329
  0.5057947691687588  0.9994491193281263  0.5057947691687588
  0.5057947691687588  0.5057947691687588  0.9994491193281263
  0.5002282758548162  0.5002282758548162  0.5002282758548162
  0.9685798924188376  0.2814201075811624  0.2814201075811624
  0.9992359247064329  0.2507640752935671  0.7489395702082220
  0.9992359247064329  0.7489395702082220  0.2507640752935671
  0.9994491193281263  0.7442052308312412  0.7442052308312412
  0.5010604297917780  0.2507640752935671  0.2507640752935671
  0.5057947691687588  0.2505508806718737  0.7442052308312412
  0.5057947691687588  0.7442052308312412  0.2505508806718737
  0.5002282758548162  0.7497717241451838  0.7497717241451838
  0.2814201075811624  0.9685798924188376  0.2814201075811624
  0.2507640752935671  0.9992359247064329  0.7489395702082220
  0.2507640752935671  0.5010604297917780  0.2507640752935671
  0.2505508806718737  0.5057947691687588  0.7442052308312412
  0.7489395702082220  0.9992359247064329  0.2507640752935671
  0.7442052308312412  0.9994491193281263  0.7442052308312412
  0.7442052308312412  0.5057947691687588  0.2505508806718737
  0.7497717241451838  0.5002282758548162  0.7497717241451838
  0.2814201075811624  0.2814201075811624  0.9685798924188376
  0.2507640752935671  0.2507640752935671  0.5010604297917780
  0.2507640752935671  0.7489395702082220  0.9992359247064329
  0.2505508806718737  0.7442052308312412  0.5057947691687588
  0.7489395702082220  0.2507640752935671  0.9992359247064329
  0.7442052308312412  0.2505508806718737  0.5057947691687588
  0.7442052308312412  0.7442052308312412  0.9994491193281263
  0.7497717241451838  0.7497717241451838  0.5002282758548162
  0.2525800973113874  0.9974199026886126  0.9974199026886126
  0.2523016014120643  0.9976983985879357  0.5067668476254070
  0.2523016014120643  0.5067668476254070  0.9976983985879357
  0.2495206681760678  0.4996619758510974  0.4996619758510974
  0.7432331523745930  0.9976983985879357  0.9976983985879357
  0.7503380241489026  0.0004793318239322  0.4996619758510974
  0.7503380241489026  0.4996619758510974  0.0004793318239322
  0.7500186242115419  0.4999813757884581  0.4999813757884581
  0.2525800973113874  0.2525800973113874  0.2525800973113874
  0.2523016014120643  0.2523016014120643  0.7432331523745930
  0.2523016014120643  0.7432331523745930  0.2523016014120643
  0.2495206681760678  0.7503380241489026  0.7503380241489026
  0.7432331523745930  0.2523016014120643  0.2523016014120643
  0.7503380241489026  0.2495206681760678  0.7503380241489026
  0.7503380241489026  0.7503380241489026  0.2495206681760678
  0.7500186242115419  0.7500186242115419  0.7500186242115419
  0.9974199026886126  0.9974199026886126  0.2525800973113874
  0.9976983985879357  0.9976983985879357  0.7432331523745930
  0.9976983985879357  0.5067668476254070  0.2523016014120643
  0.0004793318239322  0.4996619758510974  0.7503380241489026
  0.5067668476254070  0.9976983985879357  0.2523016014120643
  0.4996619758510974  0.0004793318239322  0.7503380241489026
  0.4996619758510974  0.4996619758510974  0.2495206681760678
  0.4999813757884581  0.4999813757884581  0.7500186242115419
  0.9974199026886126  0.2525800973113874  0.9974199026886126
  0.9976983985879357  0.2523016014120643  0.5067668476254070
  0.9976983985879357  0.7432331523745930  0.9976983985879357
  0.0004793318239322  0.7503380241489026  0.4996619758510974
  0.5067668476254070  0.2523016014120643  0.9976983985879357
  0.4996619758510974  0.2495206681760678  0.4996619758510974
  0.4996619758510974  0.7503380241489026  0.0004793318239322
  0.4999813757884581  0.7500186242115419  0.4999813757884581
 
  0.00000000E+00  0.00000000E+00  0.00000000E+00
  0.00000000E+00  0.00000000E+00  0.00000000E+00
  0.00000000E+00  0.00000000E+00  0.00000000E+00
  0.00000000E+00  0.00000000E+00  0.00000000E+00
  0.00000000E+00  0.00000000E+00  0.00000000E+00
  0.00000000E+00  0.00000000E+00  0.00000000E+00
  0.00000000E+00  0.00000000E+00  0.00000000E+00
  0.00000000E+00  0.00000000E+00  0.00000000E+00
  0.00000000E+00  0.00000000E+00  0.00000000E+00
  0.00000000E+00  0.00000000E+00  0.00000000E+00
  0.00000000E+00  0.00000000E+00  0.00000000E+00
  0.00000000E+00  0.00000000E+00  0.00000000E+00
  0.00000000E+00  0.00000000E+00  0.00000000E+00
  0.00000000E+00  0.00000000E+00  0.00000000E+00
  0.00000000E+00  0.00000000E+00  0.00000000E+00
  0.00000000E+00  0.00000000E+00  0.00000000E+00
  0.00000000E+00  0.00000000E+00  0.00000000E+00
  0.00000000E+00  0.00000000E+00  0.00000000E+00
  0.00000000E+00  0.00000000E+00  0.00000000E+00
  0.00000000E+00  0.00000000E+00  0.00000000E+00
  0.00000000E+00  0.00000000E+00  0.00000000E+00
  0.00000000E+00  0.00000000E+00  0.00000000E+00
  0.00000000E+00  0.00000000E+00  0.00000000E+00
  0.00000000E+00  0.00000000E+00  0.00000000E+00
  0.00000000E+00  0.00000000E+00  0.00000000E+00
  0.00000000E+00  0.00000000E+00  0.00000000E+00
  0.00000000E+00  0.00000000E+00  0.00000000E+00
  0.00000000E+00  0.00000000E+00  0.00000000E+00
  0.00000000E+00  0.00000000E+00  0.00000000E+00
  0.00000000E+00  0.00000000E+00  0.00000000E+00
  0.00000000E+00  0.00000000E+00  0.00000000E+00
  0.00000000E+00  0.00000000E+00  0.00000000E+00
  0.00000000E+00  0.00000000E+00  0.00000000E+00
  0.00000000E+00  0.00000000E+00  0.00000000E+00
  0.00000000E+00  0.00000000E+00  0.00000000E+00
  0.00000000E+00  0.00000000E+00  0.00000000E+00
  0.00000000E+00  0.00000000E+00  0.00000000E+00
  0.00000000E+00  0.00000000E+00  0.00000000E+00
  0.00000000E+00  0.00000000E+00  0.00000000E+00
  0.00000000E+00  0.00000000E+00  0.00000000E+00
  0.00000000E+00  0.00000000E+00  0.00000000E+00
  0.00000000E+00  0.00000000E+00  0.00000000E+00
  0.00000000E+00  0.00000000E+00  0.00000000E+00
  0.00000000E+00  0.00000000E+00  0.00000000E+00
  0.00000000E+00  0.00000000E+00  0.00000000E+00
  0.00000000E+00  0.00000000E+00  0.00000000E+00
  0.00000000E+00  0.00000000E+00  0.00000000E+00
  0.00000000E+00  0.00000000E+00  0.00000000E+00
  0.00000000E+00  0.00000000E+00  0.00000000E+00
  0.00000000E+00  0.00000000E+00  0.00000000E+00
  0.00000000E+00  0.00000000E+00  0.00000000E+00
  0.00000000E+00  0.00000000E+00  0.00000000E+00
  0.00000000E+00  0.00000000E+00  0.00000000E+00
  0.00000000E+00  0.00000000E+00  0.00000000E+00
  0.00000000E+00  0.00000000E+00  0.00000000E+00
  0.00000000E+00  0.00000000E+00  0.00000000E+00
  0.00000000E+00  0.00000000E+00  0.00000000E+00
  0.00000000E+00  0.00000000E+00  0.00000000E+00
  0.00000000E+00  0.00000000E+00  0.00000000E+00
  0.00000000E+00  0.00000000E+00  0.00000000E+00
  0.00000000E+00  0.00000000E+00  0.00000000E+00
  0.00000000E+00  0.00000000E+00  0.00000000E+00
  0.00000000E+00  0.00000000E+00  0.00000000E+00
  0.00000000E+00  0.00000000E+00  0.00000000E+00
  0.00000000E+00  0.00000000E+00  0.00000000E+00
