Mg9 O7                                  
   1.00000000000000     
     0.0000000000000000    4.2468930000000000    4.2468930000000000
     4.2468930000000000    0.0000000000000000    4.2468930000000000
     4.2468930000000000    4.2468930000000000    0.0000000000000000
   Mg   O 
     9     7
Direct
  0.3004914027750303  0.3456513227612916  0.2022910264797417
  0.9902924611167165  0.9838313147511499  0.0111148761142132
  0.0013883776687962  0.0016028731576370  0.5011291585809303
  0.9770489806985410  0.4991999815514063  0.9932830600637530
  0.9632701730408044  0.5103889373951205  0.5390102084423276
  0.5029097144867620  0.9795078483089412  0.0004537434573493
  0.5093126479959906  0.9670294035702796  0.5254137583639320
  0.5641947325230348  0.5507680911700987  0.9379774932696350
  0.4913413493583008  0.4817360736262017  0.5129031285682188
  0.2380909771739326  0.2351671168109704  0.7564009671244207
  0.2546878507336103  0.7027910547080651  0.2479348137670385
  0.2582635938582456  0.7081172011902410  0.7861580620820945
  0.7161954323600241  0.2505097622982646  0.2438986368015037
  0.7275100242886339  0.2515454888903292  0.7752590506438324
  0.7459808943695379  0.7272093526137056  0.2649263230352332
  0.7691343875520289  0.7741761771963240  0.7333386932057522
 
  0.00000000E+00  0.00000000E+00  0.00000000E+00
  0.00000000E+00  0.00000000E+00  0.00000000E+00
  0.00000000E+00  0.00000000E+00  0.00000000E+00
  0.00000000E+00  0.00000000E+00  0.00000000E+00
  0.00000000E+00  0.00000000E+00  0.00000000E+00
  0.00000000E+00  0.00000000E+00  0.00000000E+00
  0.00000000E+00  0.00000000E+00  0.00000000E+00
  0.00000000E+00  0.00000000E+00  0.00000000E+00
  0.00000000E+00  0.00000000E+00  0.00000000E+00
  0.00000000E+00  0.00000000E+00  0.00000000E+00
  0.00000000E+00  0.00000000E+00  0.00000000E+00
  0.00000000E+00  0.00000000E+00  0.00000000E+00
  0.00000000E+00  0.00000000E+00  0.00000000E+00
  0.00000000E+00  0.00000000E+00  0.00000000E+00
  0.00000000E+00  0.00000000E+00  0.00000000E+00
  0.00000000E+00  0.00000000E+00  0.00000000E+00
