Mg9 O7                                  
   1.00000000000000     
     0.0000000000000000    4.2468930000000000    4.2468930000000000
     4.2468930000000000    0.0000000000000000    4.2468930000000000
     4.2468930000000000    4.2468930000000000    0.0000000000000000
   Mg   O 
     9     7
Direct
  0.2963506128941304  0.3456380225304656  0.2065642337785718
  0.9904732925081134  0.9830289593555435  0.0108327844108800
  0.0004482599318649  0.0016678677800215  0.5016223420364696
  0.9774752734889418  0.4994415435057817  0.9924858395955241
  0.9624654433478597  0.5112139468827550  0.5405152310380288
  0.5021603364738780  0.9805973956781315  0.0001257951879978
  0.5103242625791893  0.9667674666473260  0.5254934465368422
  0.5638525439808362  0.5485774780500634  0.9385829056390591
  0.4917041787520731  0.4824840638281316  0.5120687960332759
  0.2379369494329140  0.2356841701498240  0.7558087276720258
  0.2542916390317060  0.7041024298861771  0.2480939207686390
  0.2586962696701747  0.7094263059630777  0.7841340831069630
  0.7180561098284031  0.2497065055858272  0.2439653779152451
  0.7304243874774770  0.2506141789593954  0.7719243337196176
  0.7473098469288431  0.7265241329207797  0.2645794745191239
  0.7681435936736065  0.7737575322767114  0.7346957080417198
 
  0.00000000E+00  0.00000000E+00  0.00000000E+00
  0.00000000E+00  0.00000000E+00  0.00000000E+00
  0.00000000E+00  0.00000000E+00  0.00000000E+00
  0.00000000E+00  0.00000000E+00  0.00000000E+00
  0.00000000E+00  0.00000000E+00  0.00000000E+00
  0.00000000E+00  0.00000000E+00  0.00000000E+00
  0.00000000E+00  0.00000000E+00  0.00000000E+00
  0.00000000E+00  0.00000000E+00  0.00000000E+00
  0.00000000E+00  0.00000000E+00  0.00000000E+00
  0.00000000E+00  0.00000000E+00  0.00000000E+00
  0.00000000E+00  0.00000000E+00  0.00000000E+00
  0.00000000E+00  0.00000000E+00  0.00000000E+00
  0.00000000E+00  0.00000000E+00  0.00000000E+00
  0.00000000E+00  0.00000000E+00  0.00000000E+00
  0.00000000E+00  0.00000000E+00  0.00000000E+00
  0.00000000E+00  0.00000000E+00  0.00000000E+00
