Mg9 O7
1.0
0.000000 4.246893 4.246893
4.246893 0.000000 4.246893
4.246893 4.246893 0.000000
Mg O
9 7
direct
0.250788 0.254860 0.249990 Mg
0.000000 0.000000 0.000000 Mg
0.994978 0.004218 0.498490 Mg
0.009873 0.474780 0.031864 Mg
0.995555 0.498265 0.515295 Mg
0.517481 0.972100 0.013969 Mg
0.481057 0.993267 0.487008 Mg
0.510381 0.521742 0.984877 Mg
0.500000 0.500000 0.500000 Mg
0.250000 0.250000 0.750000 O
0.250000 0.750000 0.250000 O
0.250000 0.750000 0.750000 O
0.750000 0.250000 0.250000 O
0.750000 0.250000 0.750000 O
0.750000 0.750000 0.250000 O
0.750000 0.750000 0.750000 O
