k-point mesh distance 0.05414999999999999
0
G
2 1 2
0. 0. 0. 
