mode: primitive_uniform, kpt density: 3, factor: 2, # kpts: 189
0
Gamma
12 12 12
