Mg1 Al2 Se4
1.0
1.934753 1.117030 12.928781
-1.934753 1.117030 12.928781
0.000000 -2.234061 12.928781
Mg Al Se
1 2 4
direct
0.500000 0.500000 0.500000 Mg
0.737460 0.737460 0.737460 Al
0.262540 0.262540 0.262540 Al
0.203331 0.203331 0.203331 Se
0.796669 0.796669 0.796669 Se
0.623613 0.623613 0.623613 Se
0.376387 0.376387 0.376387 Se
