Ba24 Zn12 N23
1.0
8.368575 0.000000 0.000000
0.000000 12.552863 0.000000
0.000000 0.000000 13.054148
Ba Zn N
24 12 23
direct
0.250823 0.834616 0.156980 Ba
0.250000 0.500000 0.156714 Ba
-0.000000 0.666667 -0.343286 Ba
0.250000 0.166667 0.156714 Ba
-0.000000 0.333333 -0.343286 Ba
-0.000000 0.000000 -0.343286 Ba
0.750000 0.833333 0.156714 Ba
0.750000 0.500000 0.156714 Ba
0.500000 0.666667 -0.343286 Ba
0.750000 0.166667 0.156714 Ba
0.500000 0.333333 -0.343286 Ba
0.500000 0.000000 -0.343286 Ba
0.491272 0.660397 0.348806 Ba
0.500000 0.333333 0.343286 Ba
0.250000 0.500000 -0.156714 Ba
0.513462 0.002857 0.347675 Ba
0.250000 0.166667 -0.156714 Ba
0.250000 -0.166667 -0.156714 Ba
0.007925 0.663953 0.354296 Ba
1.000000 0.333333 0.343286 Ba
0.750000 0.500000 -0.156714 Ba
0.006600 0.004450 0.339937 Ba
0.750000 0.166667 -0.156714 Ba
0.750000 -0.166667 -0.156714 Ba
0.264198 0.841478 0.500577 Zn
0.250000 0.500000 0.500000 Zn
0.000000 0.666667 0.000000 Zn
0.250000 0.166667 0.500000 Zn
0.000000 0.333333 0.000000 Zn
0.000000 0.000000 0.000000 Zn
0.750000 0.833333 0.500000 Zn
0.750000 0.500000 0.500000 Zn
0.500000 0.666667 0.000000 Zn
0.750000 0.166667 0.500000 Zn
0.500000 0.333333 0.000000 Zn
0.500000 0.000000 0.000000 Zn
0.250000 0.500000 0.359634 N
-0.000000 0.666667 -0.140366 N
0.250000 0.166667 0.359634 N
-0.000000 0.333333 -0.140366 N
-0.000000 0.000000 -0.140366 N
0.750000 0.833333 0.359634 N
0.750000 0.500000 0.359634 N
0.500000 0.666667 -0.140366 N
0.750000 0.166667 0.359634 N
0.500000 0.333333 -0.140366 N
0.500000 0.000000 -0.140366 N
0.500000 0.666667 0.140366 N
0.500000 0.333333 0.140366 N
0.250000 0.500000 -0.359634 N
0.500000 -0.000000 0.140366 N
0.250000 0.166667 -0.359634 N
0.250000 -0.166667 -0.359634 N
1.000000 0.666667 0.140366 N
1.000000 0.333333 0.140366 N
0.750000 0.500000 -0.359634 N
1.000000 -0.000000 0.140366 N
0.750000 0.166667 -0.359634 N
0.750000 -0.166667 -0.359634 N
