Mg31 O32                                
   1.00000000000000     
     8.4194560000000003    0.0000000000000000    0.0000000000000000
     0.0000000000000000    8.4194560000000003    0.0000000000000000
     0.0000000000000000    0.0000000000000000    8.4194560000000003
   Mg   O 
    31    32
Direct
  0.0000000000000000  0.0000000000000000  0.5000000000000000
  0.0000000000000000  0.5000000000000000  0.0000000000000000
  0.0000000000000000  0.5000000000000000  0.5000000000000000
  0.5000000000000000  0.0000000000000000  0.0000000000000000
  0.5000000000000000  0.0000000000000000  0.5000000000000000
  0.5000000000000000  0.5000000000000000  0.0000000000000000
  0.5000000000000000  0.5000000000000000  0.5000000000000000
  0.0000000000000000  0.2439523778762194  0.2439523778762194
  0.0000000000000000  0.2439523778762194  0.7560476221237806
  0.0000000000000000  0.7560476221237806  0.2439523778762194
  0.0000000000000000  0.7560476221237806  0.7560476221237806
  0.5000000000000000  0.2489107096170358  0.2489107096170358
  0.5000000000000000  0.2489107096170358  0.7510892903829642
  0.5000000000000000  0.7510892903829642  0.2489107096170358
  0.5000000000000000  0.7510892903829642  0.7510892903829642
  0.2439523778762194  0.0000000000000000  0.2439523778762194
  0.2439523778762194  0.0000000000000000  0.7560476221237806
  0.2489107096170358  0.5000000000000000  0.2489107096170358
  0.2489107096170358  0.5000000000000000  0.7510892903829642
  0.7560476221237806  0.0000000000000000  0.2439523778762194
  0.7560476221237806  0.0000000000000000  0.7560476221237806
  0.7510892903829642  0.5000000000000000  0.2489107096170358
  0.7510892903829642  0.5000000000000000  0.7510892903829642
  0.2439523778762194  0.2439523778762194  0.0000000000000000
  0.2489107096170358  0.2489107096170358  0.5000000000000000
  0.2439523778762194  0.7560476221237806  0.0000000000000000
  0.2489107096170358  0.7510892903829642  0.5000000000000000
  0.7560476221237806  0.2439523778762194  0.0000000000000000
  0.7510892903829642  0.2489107096170358  0.5000000000000000
  0.7560476221237806  0.7560476221237806  0.0000000000000000
  0.7510892903829642  0.7510892903829642  0.5000000000000000
  0.2640846500158389  0.0000000000000000  0.0000000000000000
  0.2518544178053759  0.0000000000000000  0.5000000000000000
  0.2518544178053759  0.5000000000000000  0.0000000000000000
  0.2508543853714542  0.5000000000000000  0.5000000000000000
  0.7359153499841611  0.0000000000000000  0.0000000000000000
  0.7481455821946241  0.0000000000000000  0.5000000000000000
  0.7481455821946241  0.5000000000000000  0.0000000000000000
  0.7491456146285458  0.5000000000000000  0.5000000000000000
  0.2500310481900954  0.2500310481900954  0.2500310481900954
  0.2500310481900954  0.2500310481900954  0.7499689518099046
  0.2500310481900954  0.7499689518099046  0.2500310481900954
  0.2500310481900954  0.7499689518099046  0.7499689518099046
  0.7499689518099046  0.2500310481900954  0.2500310481900954
  0.7499689518099046  0.2500310481900954  0.7499689518099046
  0.7499689518099046  0.7499689518099046  0.2500310481900954
  0.7499689518099046  0.7499689518099046  0.7499689518099046
  0.0000000000000000  0.0000000000000000  0.2640846500158389
  0.0000000000000000  0.0000000000000000  0.7359153499841611
  0.0000000000000000  0.5000000000000000  0.2518544178053759
  0.0000000000000000  0.5000000000000000  0.7481455821946241
  0.5000000000000000  0.0000000000000000  0.2518544178053759
  0.5000000000000000  0.0000000000000000  0.7481455821946241
  0.5000000000000000  0.5000000000000000  0.2508543853714542
  0.5000000000000000  0.5000000000000000  0.7491456146285458
  0.0000000000000000  0.2640846500158389  0.0000000000000000
  0.0000000000000000  0.2518544178053759  0.5000000000000000
  0.0000000000000000  0.7359153499841611  0.0000000000000000
  0.0000000000000000  0.7481455821946241  0.5000000000000000
  0.5000000000000000  0.2518544178053759  0.0000000000000000
  0.5000000000000000  0.2508543853714542  0.5000000000000000
  0.5000000000000000  0.7481455821946241  0.0000000000000000
  0.5000000000000000  0.7491456146285458  0.5000000000000000
 
  0.00000000E+00  0.00000000E+00  0.00000000E+00
  0.00000000E+00  0.00000000E+00  0.00000000E+00
  0.00000000E+00  0.00000000E+00  0.00000000E+00
  0.00000000E+00  0.00000000E+00  0.00000000E+00
  0.00000000E+00  0.00000000E+00  0.00000000E+00
  0.00000000E+00  0.00000000E+00  0.00000000E+00
  0.00000000E+00  0.00000000E+00  0.00000000E+00
  0.00000000E+00  0.00000000E+00  0.00000000E+00
  0.00000000E+00  0.00000000E+00  0.00000000E+00
  0.00000000E+00  0.00000000E+00  0.00000000E+00
  0.00000000E+00  0.00000000E+00  0.00000000E+00
  0.00000000E+00  0.00000000E+00  0.00000000E+00
  0.00000000E+00  0.00000000E+00  0.00000000E+00
  0.00000000E+00  0.00000000E+00  0.00000000E+00
  0.00000000E+00  0.00000000E+00  0.00000000E+00
  0.00000000E+00  0.00000000E+00  0.00000000E+00
  0.00000000E+00  0.00000000E+00  0.00000000E+00
  0.00000000E+00  0.00000000E+00  0.00000000E+00
  0.00000000E+00  0.00000000E+00  0.00000000E+00
  0.00000000E+00  0.00000000E+00  0.00000000E+00
  0.00000000E+00  0.00000000E+00  0.00000000E+00
  0.00000000E+00  0.00000000E+00  0.00000000E+00
  0.00000000E+00  0.00000000E+00  0.00000000E+00
  0.00000000E+00  0.00000000E+00  0.00000000E+00
  0.00000000E+00  0.00000000E+00  0.00000000E+00
  0.00000000E+00  0.00000000E+00  0.00000000E+00
  0.00000000E+00  0.00000000E+00  0.00000000E+00
  0.00000000E+00  0.00000000E+00  0.00000000E+00
  0.00000000E+00  0.00000000E+00  0.00000000E+00
  0.00000000E+00  0.00000000E+00  0.00000000E+00
  0.00000000E+00  0.00000000E+00  0.00000000E+00
  0.00000000E+00  0.00000000E+00  0.00000000E+00
  0.00000000E+00  0.00000000E+00  0.00000000E+00
  0.00000000E+00  0.00000000E+00  0.00000000E+00
  0.00000000E+00  0.00000000E+00  0.00000000E+00
  0.00000000E+00  0.00000000E+00  0.00000000E+00
  0.00000000E+00  0.00000000E+00  0.00000000E+00
  0.00000000E+00  0.00000000E+00  0.00000000E+00
  0.00000000E+00  0.00000000E+00  0.00000000E+00
  0.00000000E+00  0.00000000E+00  0.00000000E+00
  0.00000000E+00  0.00000000E+00  0.00000000E+00
  0.00000000E+00  0.00000000E+00  0.00000000E+00
  0.00000000E+00  0.00000000E+00  0.00000000E+00
  0.00000000E+00  0.00000000E+00  0.00000000E+00
  0.00000000E+00  0.00000000E+00  0.00000000E+00
  0.00000000E+00  0.00000000E+00  0.00000000E+00
  0.00000000E+00  0.00000000E+00  0.00000000E+00
  0.00000000E+00  0.00000000E+00  0.00000000E+00
  0.00000000E+00  0.00000000E+00  0.00000000E+00
  0.00000000E+00  0.00000000E+00  0.00000000E+00
  0.00000000E+00  0.00000000E+00  0.00000000E+00
  0.00000000E+00  0.00000000E+00  0.00000000E+00
  0.00000000E+00  0.00000000E+00  0.00000000E+00
  0.00000000E+00  0.00000000E+00  0.00000000E+00
  0.00000000E+00  0.00000000E+00  0.00000000E+00
  0.00000000E+00  0.00000000E+00  0.00000000E+00
  0.00000000E+00  0.00000000E+00  0.00000000E+00
  0.00000000E+00  0.00000000E+00  0.00000000E+00
  0.00000000E+00  0.00000000E+00  0.00000000E+00
  0.00000000E+00  0.00000000E+00  0.00000000E+00
  0.00000000E+00  0.00000000E+00  0.00000000E+00
  0.00000000E+00  0.00000000E+00  0.00000000E+00
  0.00000000E+00  0.00000000E+00  0.00000000E+00
