k-point mesh generated by kpt_generator.py with a mesh of 0.05
0
M
2 2 2
0 0 0
