NPAR = 4
ENCUT = 400
PREC = N ; LREAL = A
LASPH = .TRUE.

ISIF = 2 ; EDIFF = 1.0e-06 ; EDIFFG = -0.05

IBRION = 2
NSW = 20
ISMEAR = 0 ; SIGMA = 0.05
NELM = 100 ; NELMIN = 4
ALGO = N

LWAVE = .FALSE.
LCHARG = .FALSE.
LORBIT = 12
NELECT = 258.0