Mg31 O32                                
   1.00000000000000     
     8.4194560000000003    0.0000000000000000    0.0000000000000000
     0.0000000000000000    8.4194560000000003    0.0000000000000000
     0.0000000000000000    0.0000000000000000    8.4194560000000003
   Mg   O 
    31    32
Direct
  0.0000000000000000  0.0000000000000000  0.5000000000000000
  0.0000000000000000  0.5000000000000000  0.0000000000000000
  0.0000000000000000  0.5000000000000000  0.5000000000000000
  0.5000000000000000  0.0000000000000000  0.0000000000000000
  0.5000000000000000  0.0000000000000000  0.5000000000000000
  0.5000000000000000  0.5000000000000000  0.0000000000000000
  0.5000000000000000  0.5000000000000000  0.5000000000000000
  0.0000000000000000  0.2442966542283784  0.2442966542283784
  0.0000000000000000  0.2442966542283784  0.7557033457716216
  0.0000000000000000  0.7557033457716216  0.2442966542283784
  0.0000000000000000  0.7557033457716216  0.7557033457716216
  0.5000000000000000  0.2492931244100305  0.2492931244100305
  0.5000000000000000  0.2492931244100305  0.7507068755899695
  0.5000000000000000  0.7507068755899695  0.2492931244100305
  0.5000000000000000  0.7507068755899695  0.7507068755899695
  0.2442966542283784  0.0000000000000000  0.2442966542283784
  0.2442966542283784  0.0000000000000000  0.7557033457716216
  0.2492931244100305  0.5000000000000000  0.2492931244100305
  0.2492931244100305  0.5000000000000000  0.7507068755899695
  0.7557033457716216  0.0000000000000000  0.2442966542283784
  0.7557033457716216  0.0000000000000000  0.7557033457716216
  0.7507068755899695  0.5000000000000000  0.2492931244100305
  0.7507068755899695  0.5000000000000000  0.7507068755899695
  0.2442966542283784  0.2442966542283784  0.0000000000000000
  0.2492931244100305  0.2492931244100305  0.5000000000000000
  0.2442966542283784  0.7557033457716216  0.0000000000000000
  0.2492931244100305  0.7507068755899695  0.5000000000000000
  0.7557033457716216  0.2442966542283784  0.0000000000000000
  0.7507068755899695  0.2492931244100305  0.5000000000000000
  0.7557033457716216  0.7557033457716216  0.0000000000000000
  0.7507068755899695  0.7507068755899695  0.5000000000000000
  0.2631248203471657  0.0000000000000000  0.0000000000000000
  0.2513323811782016  0.0000000000000000  0.5000000000000000
  0.2513323811782016  0.5000000000000000  0.0000000000000000
  0.2503535661359919  0.5000000000000000  0.5000000000000000
  0.7368751796528343  0.0000000000000000  0.0000000000000000
  0.7486676188217984  0.0000000000000000  0.5000000000000000
  0.7486676188217984  0.5000000000000000  0.0000000000000000
  0.7496464338640081  0.5000000000000000  0.5000000000000000
  0.2496780935767120  0.2496780935767120  0.2496780935767120
  0.2496780935767120  0.2496780935767120  0.7503219064232880
  0.2496780935767120  0.7503219064232880  0.2496780935767120
  0.2496780935767120  0.7503219064232880  0.7503219064232880
  0.7503219064232880  0.2496780935767120  0.2496780935767120
  0.7503219064232880  0.2496780935767120  0.7503219064232880
  0.7503219064232880  0.7503219064232880  0.2496780935767120
  0.7503219064232880  0.7503219064232880  0.7503219064232880
  0.0000000000000000  0.0000000000000000  0.2631248203471657
  0.0000000000000000  0.0000000000000000  0.7368751796528343
  0.0000000000000000  0.5000000000000000  0.2513323811782016
  0.0000000000000000  0.5000000000000000  0.7486676188217984
  0.5000000000000000  0.0000000000000000  0.2513323811782016
  0.5000000000000000  0.0000000000000000  0.7486676188217984
  0.5000000000000000  0.5000000000000000  0.2503535661359919
  0.5000000000000000  0.5000000000000000  0.7496464338640081
  0.0000000000000000  0.2631248203471657  0.0000000000000000
  0.0000000000000000  0.2513323811782016  0.5000000000000000
  0.0000000000000000  0.7368751796528343  0.0000000000000000
  0.0000000000000000  0.7486676188217984  0.5000000000000000
  0.5000000000000000  0.2513323811782016  0.0000000000000000
  0.5000000000000000  0.2503535661359919  0.5000000000000000
  0.5000000000000000  0.7486676188217984  0.0000000000000000
  0.5000000000000000  0.7496464338640081  0.5000000000000000
 
  0.00000000E+00  0.00000000E+00  0.00000000E+00
  0.00000000E+00  0.00000000E+00  0.00000000E+00
  0.00000000E+00  0.00000000E+00  0.00000000E+00
  0.00000000E+00  0.00000000E+00  0.00000000E+00
  0.00000000E+00  0.00000000E+00  0.00000000E+00
  0.00000000E+00  0.00000000E+00  0.00000000E+00
  0.00000000E+00  0.00000000E+00  0.00000000E+00
  0.00000000E+00  0.00000000E+00  0.00000000E+00
  0.00000000E+00  0.00000000E+00  0.00000000E+00
  0.00000000E+00  0.00000000E+00  0.00000000E+00
  0.00000000E+00  0.00000000E+00  0.00000000E+00
  0.00000000E+00  0.00000000E+00  0.00000000E+00
  0.00000000E+00  0.00000000E+00  0.00000000E+00
  0.00000000E+00  0.00000000E+00  0.00000000E+00
  0.00000000E+00  0.00000000E+00  0.00000000E+00
  0.00000000E+00  0.00000000E+00  0.00000000E+00
  0.00000000E+00  0.00000000E+00  0.00000000E+00
  0.00000000E+00  0.00000000E+00  0.00000000E+00
  0.00000000E+00  0.00000000E+00  0.00000000E+00
  0.00000000E+00  0.00000000E+00  0.00000000E+00
  0.00000000E+00  0.00000000E+00  0.00000000E+00
  0.00000000E+00  0.00000000E+00  0.00000000E+00
  0.00000000E+00  0.00000000E+00  0.00000000E+00
  0.00000000E+00  0.00000000E+00  0.00000000E+00
  0.00000000E+00  0.00000000E+00  0.00000000E+00
  0.00000000E+00  0.00000000E+00  0.00000000E+00
  0.00000000E+00  0.00000000E+00  0.00000000E+00
  0.00000000E+00  0.00000000E+00  0.00000000E+00
  0.00000000E+00  0.00000000E+00  0.00000000E+00
  0.00000000E+00  0.00000000E+00  0.00000000E+00
  0.00000000E+00  0.00000000E+00  0.00000000E+00
  0.00000000E+00  0.00000000E+00  0.00000000E+00
  0.00000000E+00  0.00000000E+00  0.00000000E+00
  0.00000000E+00  0.00000000E+00  0.00000000E+00
  0.00000000E+00  0.00000000E+00  0.00000000E+00
  0.00000000E+00  0.00000000E+00  0.00000000E+00
  0.00000000E+00  0.00000000E+00  0.00000000E+00
  0.00000000E+00  0.00000000E+00  0.00000000E+00
  0.00000000E+00  0.00000000E+00  0.00000000E+00
  0.00000000E+00  0.00000000E+00  0.00000000E+00
  0.00000000E+00  0.00000000E+00  0.00000000E+00
  0.00000000E+00  0.00000000E+00  0.00000000E+00
  0.00000000E+00  0.00000000E+00  0.00000000E+00
  0.00000000E+00  0.00000000E+00  0.00000000E+00
  0.00000000E+00  0.00000000E+00  0.00000000E+00
  0.00000000E+00  0.00000000E+00  0.00000000E+00
  0.00000000E+00  0.00000000E+00  0.00000000E+00
  0.00000000E+00  0.00000000E+00  0.00000000E+00
  0.00000000E+00  0.00000000E+00  0.00000000E+00
  0.00000000E+00  0.00000000E+00  0.00000000E+00
  0.00000000E+00  0.00000000E+00  0.00000000E+00
  0.00000000E+00  0.00000000E+00  0.00000000E+00
  0.00000000E+00  0.00000000E+00  0.00000000E+00
  0.00000000E+00  0.00000000E+00  0.00000000E+00
  0.00000000E+00  0.00000000E+00  0.00000000E+00
  0.00000000E+00  0.00000000E+00  0.00000000E+00
  0.00000000E+00  0.00000000E+00  0.00000000E+00
  0.00000000E+00  0.00000000E+00  0.00000000E+00
  0.00000000E+00  0.00000000E+00  0.00000000E+00
  0.00000000E+00  0.00000000E+00  0.00000000E+00
  0.00000000E+00  0.00000000E+00  0.00000000E+00
  0.00000000E+00  0.00000000E+00  0.00000000E+00
  0.00000000E+00  0.00000000E+00  0.00000000E+00
