Mg31 O31                                
   1.00000000000000     
     8.4194560000000003    0.0000000000000000    0.0000000000000000
     0.0000000000000000    8.4194560000000003    0.0000000000000000
     0.0000000000000000    0.0000000000000000    8.4194560000000003
   Mg   O 
    31    31
Direct
  0.9955420064782459  0.0000000000000000  0.5000000000000000
  0.9955420064782459  0.5000000000000000  0.0000000000000000
  0.9983829935373620  0.5000000000000000  0.5000000000000000
  0.5170529914854001  0.0000000000000000  0.0000000000000000
  0.5029586210802890  0.0000000000000000  0.5000000000000000
  0.5029586210802890  0.5000000000000000  0.0000000000000000
  0.5015724007241857  0.5000000000000000  0.5000000000000000
  0.9999900100478527  0.2436163485568770  0.2436163485568770
  0.9999900100478527  0.2436163485568770  0.7563836514431230
  0.9999900100478527  0.7563836514431230  0.2436163485568770
  0.9999900100478527  0.7563836514431230  0.7563836514431230
  0.5001057650438483  0.2485289098234844  0.2485289098234844
  0.5001057650438483  0.2485289098234844  0.7514710901765156
  0.5001057650438483  0.7514710901765156  0.2485289098234844
  0.5001057650438483  0.7514710901765156  0.7514710901765156
  0.2434349118201879  0.0000000000000000  0.2685757884186373
  0.2434349118201879  0.0000000000000000  0.7314242115813627
  0.2481113839412643  0.5000000000000000  0.2516126233235738
  0.2481113839412643  0.5000000000000000  0.7483873766764262
  0.7612007107913641  0.0000000000000000  0.2428849316857722
  0.7612007107913641  0.0000000000000000  0.7571150683142278
  0.7517385252614233  0.5000000000000000  0.2494057916711157
  0.7517385252614233  0.5000000000000000  0.7505942083288843
  0.2434349118201879  0.2685757884186373  0.0000000000000000
  0.2481113839412643  0.2516126233235738  0.5000000000000000
  0.2434349118201879  0.7314242115813627  0.0000000000000000
  0.2481113839412643  0.7483873766764262  0.5000000000000000
  0.7612007107913641  0.2428849316857722  0.0000000000000000
  0.7517385252614233  0.2494057916711157  0.5000000000000000
  0.7612007107913641  0.7571150683142278  0.0000000000000000
  0.7517385252614233  0.7505942083288843  0.5000000000000000
  0.2543011943513847  0.0000000000000000  0.5000000000000000
  0.2543011943513847  0.5000000000000000  0.0000000000000000
  0.2514899852626655  0.5000000000000000  0.5000000000000000
  0.7436710632887440  0.0000000000000000  0.0000000000000000
  0.7461208286855268  0.0000000000000000  0.5000000000000000
  0.7461208286855268  0.5000000000000000  0.0000000000000000
  0.7485898353129272  0.5000000000000000  0.5000000000000000
  0.2499981602126056  0.2449426766510996  0.2449426766510996
  0.2499981602126056  0.2449426766510996  0.7550573233489004
  0.2499981602126056  0.7550573233489004  0.2449426766510996
  0.2499981602126056  0.7550573233489004  0.7550573233489004
  0.7490441121324949  0.2488954600300275  0.2488954600300275
  0.7490441121324949  0.2488954600300275  0.7511045399699725
  0.7490441121324949  0.7511045399699725  0.2488954600300275
  0.7490441121324949  0.7511045399699725  0.7511045399699725
  0.0044751561802627  0.0000000000000000  0.2633644947315972
  0.0044751561802627  0.0000000000000000  0.7366355052684028
  0.0014094359158889  0.5000000000000000  0.2518023838595411
  0.0014094359158889  0.5000000000000000  0.7481976161404589
  0.4900892641202930  0.0000000000000000  0.2440304813038452
  0.4900892641202930  0.0000000000000000  0.7559695186961548
  0.4982514218319665  0.5000000000000000  0.2494430664972214
  0.4982514218319665  0.5000000000000000  0.7505569335027786
  0.0044751561802627  0.2633644947315972  0.0000000000000000
  0.0014094359158889  0.2518023838595411  0.5000000000000000
  0.0044751561802627  0.7366355052684028  0.0000000000000000
  0.0014094359158889  0.7481976161404589  0.5000000000000000
  0.4900892641202930  0.2440304813038452  0.0000000000000000
  0.4982514218319665  0.2494430664972214  0.5000000000000000
  0.4900892641202930  0.7559695186961548  0.0000000000000000
  0.4982514218319665  0.7505569335027786  0.5000000000000000
 
  0.00000000E+00  0.00000000E+00  0.00000000E+00
  0.00000000E+00  0.00000000E+00  0.00000000E+00
  0.00000000E+00  0.00000000E+00  0.00000000E+00
  0.00000000E+00  0.00000000E+00  0.00000000E+00
  0.00000000E+00  0.00000000E+00  0.00000000E+00
  0.00000000E+00  0.00000000E+00  0.00000000E+00
  0.00000000E+00  0.00000000E+00  0.00000000E+00
  0.00000000E+00  0.00000000E+00  0.00000000E+00
  0.00000000E+00  0.00000000E+00  0.00000000E+00
  0.00000000E+00  0.00000000E+00  0.00000000E+00
  0.00000000E+00  0.00000000E+00  0.00000000E+00
  0.00000000E+00  0.00000000E+00  0.00000000E+00
  0.00000000E+00  0.00000000E+00  0.00000000E+00
  0.00000000E+00  0.00000000E+00  0.00000000E+00
  0.00000000E+00  0.00000000E+00  0.00000000E+00
  0.00000000E+00  0.00000000E+00  0.00000000E+00
  0.00000000E+00  0.00000000E+00  0.00000000E+00
  0.00000000E+00  0.00000000E+00  0.00000000E+00
  0.00000000E+00  0.00000000E+00  0.00000000E+00
  0.00000000E+00  0.00000000E+00  0.00000000E+00
  0.00000000E+00  0.00000000E+00  0.00000000E+00
  0.00000000E+00  0.00000000E+00  0.00000000E+00
  0.00000000E+00  0.00000000E+00  0.00000000E+00
  0.00000000E+00  0.00000000E+00  0.00000000E+00
  0.00000000E+00  0.00000000E+00  0.00000000E+00
  0.00000000E+00  0.00000000E+00  0.00000000E+00
  0.00000000E+00  0.00000000E+00  0.00000000E+00
  0.00000000E+00  0.00000000E+00  0.00000000E+00
  0.00000000E+00  0.00000000E+00  0.00000000E+00
  0.00000000E+00  0.00000000E+00  0.00000000E+00
  0.00000000E+00  0.00000000E+00  0.00000000E+00
  0.00000000E+00  0.00000000E+00  0.00000000E+00
  0.00000000E+00  0.00000000E+00  0.00000000E+00
  0.00000000E+00  0.00000000E+00  0.00000000E+00
  0.00000000E+00  0.00000000E+00  0.00000000E+00
  0.00000000E+00  0.00000000E+00  0.00000000E+00
  0.00000000E+00  0.00000000E+00  0.00000000E+00
  0.00000000E+00  0.00000000E+00  0.00000000E+00
  0.00000000E+00  0.00000000E+00  0.00000000E+00
  0.00000000E+00  0.00000000E+00  0.00000000E+00
  0.00000000E+00  0.00000000E+00  0.00000000E+00
  0.00000000E+00  0.00000000E+00  0.00000000E+00
  0.00000000E+00  0.00000000E+00  0.00000000E+00
  0.00000000E+00  0.00000000E+00  0.00000000E+00
  0.00000000E+00  0.00000000E+00  0.00000000E+00
  0.00000000E+00  0.00000000E+00  0.00000000E+00
  0.00000000E+00  0.00000000E+00  0.00000000E+00
  0.00000000E+00  0.00000000E+00  0.00000000E+00
  0.00000000E+00  0.00000000E+00  0.00000000E+00
  0.00000000E+00  0.00000000E+00  0.00000000E+00
  0.00000000E+00  0.00000000E+00  0.00000000E+00
  0.00000000E+00  0.00000000E+00  0.00000000E+00
  0.00000000E+00  0.00000000E+00  0.00000000E+00
  0.00000000E+00  0.00000000E+00  0.00000000E+00
  0.00000000E+00  0.00000000E+00  0.00000000E+00
  0.00000000E+00  0.00000000E+00  0.00000000E+00
  0.00000000E+00  0.00000000E+00  0.00000000E+00
  0.00000000E+00  0.00000000E+00  0.00000000E+00
  0.00000000E+00  0.00000000E+00  0.00000000E+00
  0.00000000E+00  0.00000000E+00  0.00000000E+00
  0.00000000E+00  0.00000000E+00  0.00000000E+00
  0.00000000E+00  0.00000000E+00  0.00000000E+00
