Mg31 O31                                
   1.00000000000000     
     8.4194560000000003    0.0000000000000000    0.0000000000000000
     0.0000000000000000    8.4194560000000003    0.0000000000000000
     0.0000000000000000    0.0000000000000000    8.4194560000000003
   Mg   O 
    31    31
Direct
  0.9955420064955476  0.0000000000000000  0.5000000000000000
  0.9955420064955476  0.5000000000000000  0.0000000000000000
  0.9983829935484678  0.5000000000000000  0.5000000000000000
  0.5170529914870201  0.0000000000000000  0.0000000000000000
  0.5029586210680179  0.0000000000000000  0.5000000000000000
  0.5029586210680179  0.5000000000000000  0.0000000000000000
  0.5015724007169950  0.5000000000000000  0.5000000000000000
  0.9999900100225645  0.2436163485566638  0.2436163485566638
  0.9999900100225645  0.2436163485566638  0.7563836514433362
  0.9999900100225645  0.7563836514433362  0.2436163485566638
  0.9999900100225645  0.7563836514433362  0.7563836514433362
  0.5001057650603897  0.2485289098426975  0.2485289098426975
  0.5001057650603897  0.2485289098426975  0.7514710901572954
  0.5001057650603897  0.7514710901572954  0.2485289098426975
  0.5001057650603897  0.7514710901572954  0.7514710901572954
  0.2434349118030426  0.0000000000000000  0.2685757884186586
  0.2434349118030426  0.0000000000000000  0.7314242115813414
  0.2481113839478510  0.5000000000000000  0.2516126233170937
  0.2481113839478510  0.5000000000000000  0.7483873766829063
  0.7612007107820986  0.0000000000000000  0.2428849316815658
  0.7612007107820986  0.0000000000000000  0.7571150683184342
  0.7517385252604285  0.5000000000000000  0.2494057916691261
  0.7517385252604285  0.5000000000000000  0.7505942083308739
  0.2434349118030426  0.2685757884186586  0.0000000000000000
  0.2481113839478510  0.2516126233170937  0.5000000000000000
  0.2434349118030426  0.7314242115813414  0.0000000000000000
  0.2481113839478510  0.7483873766829063  0.5000000000000000
  0.7612007107820986  0.2428849316815658  0.0000000000000000
  0.7517385252604285  0.2494057916691261  0.5000000000000000
  0.7612007107820986  0.7571150683184342  0.0000000000000000
  0.7517385252604285  0.7505942083308739  0.5000000000000000
  0.2543011943346087  0.0000000000000000  0.5000000000000000
  0.2543011943346087  0.5000000000000000  0.0000000000000000
  0.2514899852634898  0.5000000000000000  0.5000000000000000
  0.7436710633524868  0.0000000000000000  0.0000000000000000
  0.7461208286783361  0.0000000000000000  0.5000000000000000
  0.7461208286783361  0.5000000000000000  0.0000000000000000
  0.7485898353030649  0.5000000000000000  0.5000000000000000
  0.2499981602276833  0.2449426766355103  0.2449426766355103
  0.2499981602276833  0.2449426766355103  0.7550573233644897
  0.2499981602276833  0.7550573233644897  0.2449426766355103
  0.2499981602276833  0.7550573233644897  0.7550573233644897
  0.7490441121290630  0.2488954600551097  0.2488954600551097
  0.7490441121290630  0.2488954600551097  0.7511045399448903
  0.7490441121290630  0.7511045399448903  0.2488954600551097
  0.7490441121290630  0.7511045399448903  0.7511045399448903
  0.0044751561793390  0.0000000000000000  0.2633644947252165
  0.0044751561793390  0.0000000000000000  0.7366355052747835
  0.0014094359173455  0.5000000000000000  0.2518023838644012
  0.0014094359173455  0.5000000000000000  0.7481976161355988
  0.4900892641318535  0.0000000000000000  0.2440304813046552
  0.4900892641318535  0.0000000000000000  0.7559695186953448
  0.4982514218322009  0.5000000000000000  0.2494430664926810
  0.4982514218322009  0.5000000000000000  0.7505569335073190
  0.0044751561793390  0.2633644947252165  0.0000000000000000
  0.0014094359173455  0.2518023838644012  0.5000000000000000
  0.0044751561793390  0.7366355052747835  0.0000000000000000
  0.0014094359173455  0.7481976161355988  0.5000000000000000
  0.4900892641318535  0.2440304813046552  0.0000000000000000
  0.4982514218322009  0.2494430664926810  0.5000000000000000
  0.4900892641318535  0.7559695186953448  0.0000000000000000
  0.4982514218322009  0.7505569335073190  0.5000000000000000
 
  0.00000000E+00  0.00000000E+00  0.00000000E+00
  0.00000000E+00  0.00000000E+00  0.00000000E+00
  0.00000000E+00  0.00000000E+00  0.00000000E+00
  0.00000000E+00  0.00000000E+00  0.00000000E+00
  0.00000000E+00  0.00000000E+00  0.00000000E+00
  0.00000000E+00  0.00000000E+00  0.00000000E+00
  0.00000000E+00  0.00000000E+00  0.00000000E+00
  0.00000000E+00  0.00000000E+00  0.00000000E+00
  0.00000000E+00  0.00000000E+00  0.00000000E+00
  0.00000000E+00  0.00000000E+00  0.00000000E+00
  0.00000000E+00  0.00000000E+00  0.00000000E+00
  0.00000000E+00  0.00000000E+00  0.00000000E+00
  0.00000000E+00  0.00000000E+00  0.00000000E+00
  0.00000000E+00  0.00000000E+00  0.00000000E+00
  0.00000000E+00  0.00000000E+00  0.00000000E+00
  0.00000000E+00  0.00000000E+00  0.00000000E+00
  0.00000000E+00  0.00000000E+00  0.00000000E+00
  0.00000000E+00  0.00000000E+00  0.00000000E+00
  0.00000000E+00  0.00000000E+00  0.00000000E+00
  0.00000000E+00  0.00000000E+00  0.00000000E+00
  0.00000000E+00  0.00000000E+00  0.00000000E+00
  0.00000000E+00  0.00000000E+00  0.00000000E+00
  0.00000000E+00  0.00000000E+00  0.00000000E+00
  0.00000000E+00  0.00000000E+00  0.00000000E+00
  0.00000000E+00  0.00000000E+00  0.00000000E+00
  0.00000000E+00  0.00000000E+00  0.00000000E+00
  0.00000000E+00  0.00000000E+00  0.00000000E+00
  0.00000000E+00  0.00000000E+00  0.00000000E+00
  0.00000000E+00  0.00000000E+00  0.00000000E+00
  0.00000000E+00  0.00000000E+00  0.00000000E+00
  0.00000000E+00  0.00000000E+00  0.00000000E+00
  0.00000000E+00  0.00000000E+00  0.00000000E+00
  0.00000000E+00  0.00000000E+00  0.00000000E+00
  0.00000000E+00  0.00000000E+00  0.00000000E+00
  0.00000000E+00  0.00000000E+00  0.00000000E+00
  0.00000000E+00  0.00000000E+00  0.00000000E+00
  0.00000000E+00  0.00000000E+00  0.00000000E+00
  0.00000000E+00  0.00000000E+00  0.00000000E+00
  0.00000000E+00  0.00000000E+00  0.00000000E+00
  0.00000000E+00  0.00000000E+00  0.00000000E+00
  0.00000000E+00  0.00000000E+00  0.00000000E+00
  0.00000000E+00  0.00000000E+00  0.00000000E+00
  0.00000000E+00  0.00000000E+00  0.00000000E+00
  0.00000000E+00  0.00000000E+00  0.00000000E+00
  0.00000000E+00  0.00000000E+00  0.00000000E+00
  0.00000000E+00  0.00000000E+00  0.00000000E+00
  0.00000000E+00  0.00000000E+00  0.00000000E+00
  0.00000000E+00  0.00000000E+00  0.00000000E+00
  0.00000000E+00  0.00000000E+00  0.00000000E+00
  0.00000000E+00  0.00000000E+00  0.00000000E+00
  0.00000000E+00  0.00000000E+00  0.00000000E+00
  0.00000000E+00  0.00000000E+00  0.00000000E+00
  0.00000000E+00  0.00000000E+00  0.00000000E+00
  0.00000000E+00  0.00000000E+00  0.00000000E+00
  0.00000000E+00  0.00000000E+00  0.00000000E+00
  0.00000000E+00  0.00000000E+00  0.00000000E+00
  0.00000000E+00  0.00000000E+00  0.00000000E+00
  0.00000000E+00  0.00000000E+00  0.00000000E+00
  0.00000000E+00  0.00000000E+00  0.00000000E+00
  0.00000000E+00  0.00000000E+00  0.00000000E+00
  0.00000000E+00  0.00000000E+00  0.00000000E+00
  0.00000000E+00  0.00000000E+00  0.00000000E+00
