Mg33 O32                                
   1.00000000000000     
     8.4194560000000003    0.0000000000000000    0.0000000000000000
     0.0000000000000000    8.4194560000000003    0.0000000000000000
     0.0000000000000000    0.0000000000000000    8.4194560000000003
   Mg   O 
    33    32
Direct
  0.1250000000000000  0.1250000000000000  0.1250000000000000
  0.9691712600287730  0.9691712600287730  0.9691712600287730
  0.9990660838583878  0.9990660838583878  0.5016759004540958
  0.9990660838583878  0.5016759004540958  0.9990660838583878
  0.9995350854487057  0.5057224970489145  0.5057224970489145
  0.5016759004540958  0.9990660838583878  0.9990660838583878
  0.5057224970489145  0.9995350854487057  0.5057224970489145
  0.5057224970489145  0.5057224970489145  0.9995350854487057
  0.5003003447735210  0.5003003447735210  0.5003003447735210
  0.9691712600287730  0.2808287399712270  0.2808287399712270
  0.9990660838583878  0.2509339161416122  0.7483240995459042
  0.9990660838583878  0.7483240995459042  0.2509339161416122
  0.9995350854487057  0.7442775029510855  0.7442775029510855
  0.5016759004540958  0.2509339161416122  0.2509339161416122
  0.5057224970489145  0.2504649145512943  0.7442775029510855
  0.5057224970489145  0.7442775029510855  0.2504649145512943
  0.5003003447735210  0.7496996552264790  0.7496996552264790
  0.2808287399712270  0.9691712600287730  0.2808287399712270
  0.2509339161416122  0.9990660838583878  0.7483240995459042
  0.2509339161416122  0.5016759004540958  0.2509339161416122
  0.2504649145512943  0.5057224970489145  0.7442775029510855
  0.7483240995459042  0.9990660838583878  0.2509339161416122
  0.7442775029510855  0.9995350854487057  0.7442775029510855
  0.7442775029510855  0.5057224970489145  0.2504649145512943
  0.7496996552264790  0.5003003447735210  0.7496996552264790
  0.2808287399712270  0.2808287399712270  0.9691712600287730
  0.2509339161416122  0.2509339161416122  0.5016759004540958
  0.2509339161416122  0.7483240995459042  0.9990660838583878
  0.2504649145512943  0.7442775029510855  0.5057224970489145
  0.7483240995459042  0.2509339161416122  0.9990660838583878
  0.7442775029510855  0.2504649145512943  0.5057224970489145
  0.7442775029510855  0.7442775029510855  0.9995350854487057
  0.7496996552264790  0.7496996552264790  0.5003003447735210
  0.2513428280238656  0.9986571719761344  0.9986571719761344
  0.2514141620874071  0.9985858379125929  0.5054266863769641
  0.2514141620874071  0.5054266863769641  0.9985858379125929
  0.2493074515781544  0.4992639322820907  0.4992639322820907
  0.7445733136230359  0.9985858379125929  0.9985858379125929
  0.7507360677179093  0.0006925484218456  0.4992639322820907
  0.7507360677179093  0.4992639322820907  0.0006925484218456
  0.7504243583330634  0.4995756416669366  0.4995756416669366
  0.2513428280238656  0.2513428280238656  0.2513428280238656
  0.2514141620874071  0.2514141620874071  0.7445733136230359
  0.2514141620874071  0.7445733136230359  0.2514141620874071
  0.2493074515781544  0.7507360677179093  0.7507360677179093
  0.7445733136230359  0.2514141620874071  0.2514141620874071
  0.7507360677179093  0.2493074515781544  0.7507360677179093
  0.7507360677179093  0.7507360677179093  0.2493074515781544
  0.7504243583330634  0.7504243583330634  0.7504243583330634
  0.9986571719761344  0.9986571719761344  0.2513428280238656
  0.9985858379125929  0.9985858379125929  0.7445733136230359
  0.9985858379125929  0.5054266863769641  0.2514141620874071
  0.0006925484218456  0.4992639322820907  0.7507360677179093
  0.5054266863769641  0.9985858379125929  0.2514141620874071
  0.4992639322820907  0.0006925484218456  0.7507360677179093
  0.4992639322820907  0.4992639322820907  0.2493074515781544
  0.4995756416669366  0.4995756416669366  0.7504243583330634
  0.9986571719761344  0.2513428280238656  0.9986571719761344
  0.9985858379125929  0.2514141620874071  0.5054266863769641
  0.9985858379125929  0.7445733136230359  0.9985858379125929
  0.0006925484218456  0.7507360677179093  0.4992639322820907
  0.5054266863769641  0.2514141620874071  0.9985858379125929
  0.4992639322820907  0.2493074515781544  0.4992639322820907
  0.4992639322820907  0.7507360677179093  0.0006925484218456
  0.4995756416669366  0.7504243583330634  0.4995756416669366
 
  0.00000000E+00  0.00000000E+00  0.00000000E+00
  0.00000000E+00  0.00000000E+00  0.00000000E+00
  0.00000000E+00  0.00000000E+00  0.00000000E+00
  0.00000000E+00  0.00000000E+00  0.00000000E+00
  0.00000000E+00  0.00000000E+00  0.00000000E+00
  0.00000000E+00  0.00000000E+00  0.00000000E+00
  0.00000000E+00  0.00000000E+00  0.00000000E+00
  0.00000000E+00  0.00000000E+00  0.00000000E+00
  0.00000000E+00  0.00000000E+00  0.00000000E+00
  0.00000000E+00  0.00000000E+00  0.00000000E+00
  0.00000000E+00  0.00000000E+00  0.00000000E+00
  0.00000000E+00  0.00000000E+00  0.00000000E+00
  0.00000000E+00  0.00000000E+00  0.00000000E+00
  0.00000000E+00  0.00000000E+00  0.00000000E+00
  0.00000000E+00  0.00000000E+00  0.00000000E+00
  0.00000000E+00  0.00000000E+00  0.00000000E+00
  0.00000000E+00  0.00000000E+00  0.00000000E+00
  0.00000000E+00  0.00000000E+00  0.00000000E+00
  0.00000000E+00  0.00000000E+00  0.00000000E+00
  0.00000000E+00  0.00000000E+00  0.00000000E+00
  0.00000000E+00  0.00000000E+00  0.00000000E+00
  0.00000000E+00  0.00000000E+00  0.00000000E+00
  0.00000000E+00  0.00000000E+00  0.00000000E+00
  0.00000000E+00  0.00000000E+00  0.00000000E+00
  0.00000000E+00  0.00000000E+00  0.00000000E+00
  0.00000000E+00  0.00000000E+00  0.00000000E+00
  0.00000000E+00  0.00000000E+00  0.00000000E+00
  0.00000000E+00  0.00000000E+00  0.00000000E+00
  0.00000000E+00  0.00000000E+00  0.00000000E+00
  0.00000000E+00  0.00000000E+00  0.00000000E+00
  0.00000000E+00  0.00000000E+00  0.00000000E+00
  0.00000000E+00  0.00000000E+00  0.00000000E+00
  0.00000000E+00  0.00000000E+00  0.00000000E+00
  0.00000000E+00  0.00000000E+00  0.00000000E+00
  0.00000000E+00  0.00000000E+00  0.00000000E+00
  0.00000000E+00  0.00000000E+00  0.00000000E+00
  0.00000000E+00  0.00000000E+00  0.00000000E+00
  0.00000000E+00  0.00000000E+00  0.00000000E+00
  0.00000000E+00  0.00000000E+00  0.00000000E+00
  0.00000000E+00  0.00000000E+00  0.00000000E+00
  0.00000000E+00  0.00000000E+00  0.00000000E+00
  0.00000000E+00  0.00000000E+00  0.00000000E+00
  0.00000000E+00  0.00000000E+00  0.00000000E+00
  0.00000000E+00  0.00000000E+00  0.00000000E+00
  0.00000000E+00  0.00000000E+00  0.00000000E+00
  0.00000000E+00  0.00000000E+00  0.00000000E+00
  0.00000000E+00  0.00000000E+00  0.00000000E+00
  0.00000000E+00  0.00000000E+00  0.00000000E+00
  0.00000000E+00  0.00000000E+00  0.00000000E+00
  0.00000000E+00  0.00000000E+00  0.00000000E+00
  0.00000000E+00  0.00000000E+00  0.00000000E+00
  0.00000000E+00  0.00000000E+00  0.00000000E+00
  0.00000000E+00  0.00000000E+00  0.00000000E+00
  0.00000000E+00  0.00000000E+00  0.00000000E+00
  0.00000000E+00  0.00000000E+00  0.00000000E+00
  0.00000000E+00  0.00000000E+00  0.00000000E+00
  0.00000000E+00  0.00000000E+00  0.00000000E+00
  0.00000000E+00  0.00000000E+00  0.00000000E+00
  0.00000000E+00  0.00000000E+00  0.00000000E+00
  0.00000000E+00  0.00000000E+00  0.00000000E+00
  0.00000000E+00  0.00000000E+00  0.00000000E+00
  0.00000000E+00  0.00000000E+00  0.00000000E+00
  0.00000000E+00  0.00000000E+00  0.00000000E+00
  0.00000000E+00  0.00000000E+00  0.00000000E+00
  0.00000000E+00  0.00000000E+00  0.00000000E+00
