Mg33 O32                                
   1.00000000000000     
     8.4194560000000003    0.0000000000000000    0.0000000000000000
     0.0000000000000000    8.4194560000000003    0.0000000000000000
     0.0000000000000000    0.0000000000000000    8.4194560000000003
   Mg   O 
    33    32
Direct
  0.1250000000000000  0.1250000000000000  0.1250000000000000
  0.9685798924257227  0.9685798924257227  0.9685798924257227
  0.9992359247064684  0.9992359247064684  0.5010604297950252
  0.9992359247064684  0.5010604297950252  0.9992359247064684
  0.9994491193261013  0.5057947691658242  0.5057947691658242
  0.5010604297950252  0.9992359247064684  0.9992359247064684
  0.5057947691658242  0.9994491193261013  0.5057947691658242
  0.5057947691658242  0.5057947691658242  0.9994491193261013
  0.5002282758537149  0.5002282758537149  0.5002282758537149
  0.9685798924257227  0.2814201075742773  0.2814201075742773
  0.9992359247064684  0.2507640752935316  0.7489395702049748
  0.9992359247064684  0.7489395702049748  0.2507640752935316
  0.9994491193261013  0.7442052308341758  0.7442052308341758
  0.5010604297950252  0.2507640752935316  0.2507640752935316
  0.5057947691658242  0.2505508806738987  0.7442052308341758
  0.5057947691658242  0.7442052308341758  0.2505508806738987
  0.5002282758537149  0.7497717241462851  0.7497717241462851
  0.2814201075742773  0.9685798924257227  0.2814201075742773
  0.2507640752935316  0.9992359247064684  0.7489395702049748
  0.2507640752935316  0.5010604297950252  0.2507640752935316
  0.2505508806738987  0.5057947691658242  0.7442052308341758
  0.7489395702049748  0.9992359247064684  0.2507640752935316
  0.7442052308341758  0.9994491193261013  0.7442052308341758
  0.7442052308341758  0.5057947691658242  0.2505508806738987
  0.7497717241462851  0.5002282758537149  0.7497717241462851
  0.2814201075742773  0.2814201075742773  0.9685798924257227
  0.2507640752935316  0.2507640752935316  0.5010604297950252
  0.2507640752935316  0.7489395702049748  0.9992359247064684
  0.2505508806738987  0.7442052308341758  0.5057947691658242
  0.7489395702049748  0.2507640752935316  0.9992359247064684
  0.7442052308341758  0.2505508806738987  0.5057947691658242
  0.7442052308341758  0.7442052308341758  0.9994491193261013
  0.7497717241462851  0.7497717241462851  0.5002282758537149
  0.2525800973032801  0.9974199026967199  0.9974199026967199
  0.2523016014071615  0.9976983985928385  0.5067668476228420
  0.2523016014071615  0.5067668476228420  0.9976983985928385
  0.2495206681720106  0.4996619758487739  0.4996619758487739
  0.7432331523771580  0.9976983985928385  0.9976983985928385
  0.7503380241512261  0.0004793318279894  0.4996619758487739
  0.7503380241512261  0.4996619758487739  0.0004793318279894
  0.7500186242074562  0.4999813757925438  0.4999813757925438
  0.2525800973032801  0.2525800973032801  0.2525800973032801
  0.2523016014071615  0.2523016014071615  0.7432331523771580
  0.2523016014071615  0.7432331523771580  0.2523016014071615
  0.2495206681720106  0.7503380241512261  0.7503380241512261
  0.7432331523771580  0.2523016014071615  0.2523016014071615
  0.7503380241512261  0.2495206681720106  0.7503380241512261
  0.7503380241512261  0.7503380241512261  0.2495206681720106
  0.7500186242074562  0.7500186242074562  0.7500186242074562
  0.9974199026967199  0.9974199026967199  0.2525800973032801
  0.9976983985928385  0.9976983985928385  0.7432331523771580
  0.9976983985928385  0.5067668476228420  0.2523016014071615
  0.0004793318279894  0.4996619758487739  0.7503380241512261
  0.5067668476228420  0.9976983985928385  0.2523016014071615
  0.4996619758487739  0.0004793318279894  0.7503380241512261
  0.4996619758487739  0.4996619758487739  0.2495206681720106
  0.4999813757925438  0.4999813757925438  0.7500186242074562
  0.9974199026967199  0.2525800973032801  0.9974199026967199
  0.9976983985928385  0.2523016014071615  0.5067668476228420
  0.9976983985928385  0.7432331523771580  0.9976983985928385
  0.0004793318279894  0.7503380241512261  0.4996619758487739
  0.5067668476228420  0.2523016014071615  0.9976983985928385
  0.4996619758487739  0.2495206681720106  0.4996619758487739
  0.4996619758487739  0.7503380241512261  0.0004793318279894
  0.4999813757925438  0.7500186242074562  0.4999813757925438
 
  0.00000000E+00  0.00000000E+00  0.00000000E+00
  0.00000000E+00  0.00000000E+00  0.00000000E+00
  0.00000000E+00  0.00000000E+00  0.00000000E+00
  0.00000000E+00  0.00000000E+00  0.00000000E+00
  0.00000000E+00  0.00000000E+00  0.00000000E+00
  0.00000000E+00  0.00000000E+00  0.00000000E+00
  0.00000000E+00  0.00000000E+00  0.00000000E+00
  0.00000000E+00  0.00000000E+00  0.00000000E+00
  0.00000000E+00  0.00000000E+00  0.00000000E+00
  0.00000000E+00  0.00000000E+00  0.00000000E+00
  0.00000000E+00  0.00000000E+00  0.00000000E+00
  0.00000000E+00  0.00000000E+00  0.00000000E+00
  0.00000000E+00  0.00000000E+00  0.00000000E+00
  0.00000000E+00  0.00000000E+00  0.00000000E+00
  0.00000000E+00  0.00000000E+00  0.00000000E+00
  0.00000000E+00  0.00000000E+00  0.00000000E+00
  0.00000000E+00  0.00000000E+00  0.00000000E+00
  0.00000000E+00  0.00000000E+00  0.00000000E+00
  0.00000000E+00  0.00000000E+00  0.00000000E+00
  0.00000000E+00  0.00000000E+00  0.00000000E+00
  0.00000000E+00  0.00000000E+00  0.00000000E+00
  0.00000000E+00  0.00000000E+00  0.00000000E+00
  0.00000000E+00  0.00000000E+00  0.00000000E+00
  0.00000000E+00  0.00000000E+00  0.00000000E+00
  0.00000000E+00  0.00000000E+00  0.00000000E+00
  0.00000000E+00  0.00000000E+00  0.00000000E+00
  0.00000000E+00  0.00000000E+00  0.00000000E+00
  0.00000000E+00  0.00000000E+00  0.00000000E+00
  0.00000000E+00  0.00000000E+00  0.00000000E+00
  0.00000000E+00  0.00000000E+00  0.00000000E+00
  0.00000000E+00  0.00000000E+00  0.00000000E+00
  0.00000000E+00  0.00000000E+00  0.00000000E+00
  0.00000000E+00  0.00000000E+00  0.00000000E+00
  0.00000000E+00  0.00000000E+00  0.00000000E+00
  0.00000000E+00  0.00000000E+00  0.00000000E+00
  0.00000000E+00  0.00000000E+00  0.00000000E+00
  0.00000000E+00  0.00000000E+00  0.00000000E+00
  0.00000000E+00  0.00000000E+00  0.00000000E+00
  0.00000000E+00  0.00000000E+00  0.00000000E+00
  0.00000000E+00  0.00000000E+00  0.00000000E+00
  0.00000000E+00  0.00000000E+00  0.00000000E+00
  0.00000000E+00  0.00000000E+00  0.00000000E+00
  0.00000000E+00  0.00000000E+00  0.00000000E+00
  0.00000000E+00  0.00000000E+00  0.00000000E+00
  0.00000000E+00  0.00000000E+00  0.00000000E+00
  0.00000000E+00  0.00000000E+00  0.00000000E+00
  0.00000000E+00  0.00000000E+00  0.00000000E+00
  0.00000000E+00  0.00000000E+00  0.00000000E+00
  0.00000000E+00  0.00000000E+00  0.00000000E+00
  0.00000000E+00  0.00000000E+00  0.00000000E+00
  0.00000000E+00  0.00000000E+00  0.00000000E+00
  0.00000000E+00  0.00000000E+00  0.00000000E+00
  0.00000000E+00  0.00000000E+00  0.00000000E+00
  0.00000000E+00  0.00000000E+00  0.00000000E+00
  0.00000000E+00  0.00000000E+00  0.00000000E+00
  0.00000000E+00  0.00000000E+00  0.00000000E+00
  0.00000000E+00  0.00000000E+00  0.00000000E+00
  0.00000000E+00  0.00000000E+00  0.00000000E+00
  0.00000000E+00  0.00000000E+00  0.00000000E+00
  0.00000000E+00  0.00000000E+00  0.00000000E+00
  0.00000000E+00  0.00000000E+00  0.00000000E+00
  0.00000000E+00  0.00000000E+00  0.00000000E+00
  0.00000000E+00  0.00000000E+00  0.00000000E+00
  0.00000000E+00  0.00000000E+00  0.00000000E+00
  0.00000000E+00  0.00000000E+00  0.00000000E+00
