PREC = A ; LREAL = .FALSE.
LASPH = .TRUE.

ENCUT = 550
ISIF = 3 ; EDIFF = 1.0e-07 ; EDIFFG = -0.005

IBRION = 8
NSW = 1
ISMEAR = 0 ; SIGMA = 0.05
NELM = 100 ; NELMIN = 4
ALGO = N

#ISTART = 0 ; ICHARG = 2
LWAVE = .TRUE.
LCHARG = .TRUE.

LORBIT = 12

LEPSILON = .TRUE.
LRPA = .FALSE.
LPEAD = .TRUE.
