MgO/Mg_p2_1_O_m2_1/Mg_p2_1_O_m2_1       
   1.00000000000000     
     2.1229916416780368    2.1229916416780368    0.0000000000000000
     2.1229916416780368    0.0000000000000000   -2.1229916416780368
     0.0000000000000000    2.1229916416780368   -2.1229916416780368
   Mg   O_
     1     1
Direct
  0.0000000000000000  0.0000000000000000  0.0000000000000000
  0.5000000000000000  0.5000000000000000  0.5000000000000000
 
  0.00000000E+00  0.00000000E+00  0.00000000E+00
  0.00000000E+00  0.00000000E+00  0.00000000E+00
