Mg32 O31
1.0
8.493786 0.000000 0.000000
-0.000000 8.493786 0.000000
0.000000 0.000000 8.493786
Mg O
32 31
direct
0.000000 0.000000 0.000000 Mg
0.000000 0.000000 0.500000 Mg
0.000000 0.500000 0.000000 Mg
0.000000 0.500000 0.500000 Mg
0.500000 0.000000 0.000000 Mg
0.500000 0.000000 0.500000 Mg
0.500000 0.500000 0.000000 Mg
0.500000 0.500000 0.500000 Mg
0.013109 0.251599 0.254385 Mg
0.000000 0.250000 0.750000 Mg
0.000000 0.750000 0.250000 Mg
0.000000 0.750000 0.750000 Mg
0.511696 0.236194 0.256755 Mg
0.500000 0.250000 0.750000 Mg
0.500000 0.750000 0.250000 Mg
0.500000 0.750000 0.750000 Mg
0.239367 0.979696 0.246081 Mg
0.250000 0.000000 0.750000 Mg
0.245035 0.483763 0.250277 Mg
0.250000 0.500000 0.750000 Mg
0.750000 0.000000 0.250000 Mg
0.750000 0.000000 0.750000 Mg
0.750000 0.500000 0.250000 Mg
0.750000 0.500000 0.750000 Mg
0.259058 0.250436 0.006460 Mg
0.246022 0.260557 0.482679 Mg
0.250000 0.750000 0.000000 Mg
0.250000 0.750000 0.500000 Mg
0.750000 0.250000 0.000000 Mg
0.750000 0.250000 0.500000 Mg
0.750000 0.750000 0.000000 Mg
0.750000 0.750000 0.500000 Mg
0.250000 0.250000 0.750000 O
0.250000 0.750000 0.250000 O
0.250000 0.750000 0.750000 O
0.750000 0.250000 0.250000 O
0.750000 0.250000 0.750000 O
0.750000 0.750000 0.250000 O
0.750000 0.750000 0.750000 O
0.250000 0.000000 0.000000 O
0.250000 0.000000 0.500000 O
0.250000 0.500000 0.000000 O
0.250000 0.500000 0.500000 O
0.750000 0.000000 0.000000 O
0.750000 0.000000 0.500000 O
0.750000 0.500000 0.000000 O
0.750000 0.500000 0.500000 O
0.000000 0.250000 0.000000 O
0.000000 0.250000 0.500000 O
0.000000 0.750000 0.000000 O
0.000000 0.750000 0.500000 O
0.500000 0.250000 0.000000 O
0.500000 0.250000 0.500000 O
0.500000 0.750000 0.000000 O
0.500000 0.750000 0.500000 O
0.000000 0.000000 0.250000 O
0.000000 0.000000 0.750000 O
0.000000 0.500000 0.250000 O
0.000000 0.500000 0.750000 O
0.500000 0.000000 0.250000 O
0.500000 0.000000 0.750000 O
0.500000 0.500000 0.250000 O
0.500000 0.500000 0.750000 O
