Mg32 O33                                
   1.00000000000000     
     8.4194560000000003    0.0000000000000000    0.0000000000000000
     0.0000000000000000    8.4194560000000003    0.0000000000000000
     0.0000000000000000    0.0000000000000000    8.4194560000000003
   Mg   O 
    32    33
Direct
  0.9990615459158008  0.9990615459158008  0.9990615459158008
  0.9966782055176040  0.9966782055176040  0.5039804871070999
  0.9966782055176040  0.5039804871070999  0.9966782055176040
  0.0008181045792313  0.5007530863468261  0.5007530863468261
  0.5039804871070999  0.9966782055176040  0.9966782055176040
  0.5007530863468261  0.0008181045792313  0.5007530863468261
  0.5007530863468261  0.5007530863468261  0.0008181045792313
  0.4993918015495709  0.4993918015495709  0.4993918015495709
  0.9990615459158008  0.2509384540841992  0.2509384540841992
  0.9966782055176040  0.2533217944823960  0.7460195128929001
  0.9966782055176040  0.7460195128929001  0.2533217944823960
  0.0008181045792313  0.7492469136531739  0.7492469136531739
  0.5039804871070999  0.2533217944823960  0.2533217944823960
  0.5007530863468261  0.2491818954207687  0.7492469136531739
  0.5007530863468261  0.7492469136531739  0.2491818954207687
  0.4993918015495709  0.7506081984504291  0.7506081984504291
  0.2509384540841992  0.9990615459158008  0.2509384540841992
  0.2533217944823960  0.9966782055176040  0.7460195128929001
  0.2533217944823960  0.5039804871070999  0.2533217944823960
  0.2491818954207687  0.5007530863468261  0.7492469136531739
  0.7460195128929001  0.9966782055176040  0.2533217944823960
  0.7492469136531739  0.0008181045792313  0.7492469136531739
  0.7492469136531739  0.5007530863468261  0.2491818954207687
  0.7506081984504291  0.4993918015495709  0.7506081984504291
  0.2509384540841992  0.2509384540841992  0.9990615459158008
  0.2533217944823960  0.2533217944823960  0.5039804871070999
  0.2533217944823960  0.7460195128929001  0.9966782055176040
  0.2491818954207687  0.7492469136531739  0.5007530863468261
  0.7460195128929001  0.2533217944823960  0.9966782055176040
  0.7492469136531739  0.2491818954207687  0.5007530863468261
  0.7492469136531739  0.7492469136531739  0.0008181045792313
  0.7506081984504291  0.7506081984504291  0.4993918015495709
  0.1250000000000000  0.1250000000000000  0.1250000000000000
  0.2817390162755160  0.9682609837244840  0.9682609837244840
  0.2509546261106763  0.9990453738893237  0.5012499379150626
  0.2509546261106763  0.5012499379150626  0.9990453738893237
  0.2503553711257140  0.5062019775473985  0.5062019775473985
  0.7487500620849374  0.9990453738893237  0.9990453738893237
  0.7437980224526015  0.9996446288742860  0.5062019775473985
  0.7437980224526015  0.5062019775473985  0.9996446288742860
  0.7499230829904917  0.5000769170095083  0.5000769170095083
  0.2817390162755160  0.2817390162755160  0.2817390162755160
  0.2509546261106763  0.2509546261106763  0.7487500620849374
  0.2509546261106763  0.7487500620849374  0.2509546261106763
  0.2503553711257140  0.7437980224526015  0.7437980224526015
  0.7487500620849374  0.2509546261106763  0.2509546261106763
  0.7437980224526015  0.2503553711257140  0.7437980224526015
  0.7437980224526015  0.7437980224526015  0.2503553711257140
  0.7499230829904917  0.7499230829904917  0.7499230829904917
  0.9682609837244840  0.9682609837244840  0.2817390162755160
  0.9990453738893237  0.9990453738893237  0.7487500620849374
  0.9990453738893237  0.5012499379150626  0.2509546261106763
  0.9996446288742860  0.5062019775473985  0.7437980224526015
  0.5012499379150626  0.9990453738893237  0.2509546261106763
  0.5062019775473985  0.9996446288742860  0.7437980224526015
  0.5062019775473985  0.5062019775473985  0.2503553711257140
  0.5000769170095083  0.5000769170095083  0.7499230829904917
  0.9682609837244840  0.2817390162755160  0.9682609837244840
  0.9990453738893237  0.2509546261106763  0.5012499379150626
  0.9990453738893237  0.7487500620849374  0.9990453738893237
  0.9996446288742860  0.7437980224526015  0.5062019775473985
  0.5012499379150626  0.2509546261106763  0.9990453738893237
  0.5062019775473985  0.2503553711257140  0.5062019775473985
  0.5062019775473985  0.7437980224526015  0.9996446288742860
  0.5000769170095083  0.7499230829904917  0.5000769170095083
 
  0.00000000E+00  0.00000000E+00  0.00000000E+00
  0.00000000E+00  0.00000000E+00  0.00000000E+00
  0.00000000E+00  0.00000000E+00  0.00000000E+00
  0.00000000E+00  0.00000000E+00  0.00000000E+00
  0.00000000E+00  0.00000000E+00  0.00000000E+00
  0.00000000E+00  0.00000000E+00  0.00000000E+00
  0.00000000E+00  0.00000000E+00  0.00000000E+00
  0.00000000E+00  0.00000000E+00  0.00000000E+00
  0.00000000E+00  0.00000000E+00  0.00000000E+00
  0.00000000E+00  0.00000000E+00  0.00000000E+00
  0.00000000E+00  0.00000000E+00  0.00000000E+00
  0.00000000E+00  0.00000000E+00  0.00000000E+00
  0.00000000E+00  0.00000000E+00  0.00000000E+00
  0.00000000E+00  0.00000000E+00  0.00000000E+00
  0.00000000E+00  0.00000000E+00  0.00000000E+00
  0.00000000E+00  0.00000000E+00  0.00000000E+00
  0.00000000E+00  0.00000000E+00  0.00000000E+00
  0.00000000E+00  0.00000000E+00  0.00000000E+00
  0.00000000E+00  0.00000000E+00  0.00000000E+00
  0.00000000E+00  0.00000000E+00  0.00000000E+00
  0.00000000E+00  0.00000000E+00  0.00000000E+00
  0.00000000E+00  0.00000000E+00  0.00000000E+00
  0.00000000E+00  0.00000000E+00  0.00000000E+00
  0.00000000E+00  0.00000000E+00  0.00000000E+00
  0.00000000E+00  0.00000000E+00  0.00000000E+00
  0.00000000E+00  0.00000000E+00  0.00000000E+00
  0.00000000E+00  0.00000000E+00  0.00000000E+00
  0.00000000E+00  0.00000000E+00  0.00000000E+00
  0.00000000E+00  0.00000000E+00  0.00000000E+00
  0.00000000E+00  0.00000000E+00  0.00000000E+00
  0.00000000E+00  0.00000000E+00  0.00000000E+00
  0.00000000E+00  0.00000000E+00  0.00000000E+00
  0.00000000E+00  0.00000000E+00  0.00000000E+00
  0.00000000E+00  0.00000000E+00  0.00000000E+00
  0.00000000E+00  0.00000000E+00  0.00000000E+00
  0.00000000E+00  0.00000000E+00  0.00000000E+00
  0.00000000E+00  0.00000000E+00  0.00000000E+00
  0.00000000E+00  0.00000000E+00  0.00000000E+00
  0.00000000E+00  0.00000000E+00  0.00000000E+00
  0.00000000E+00  0.00000000E+00  0.00000000E+00
  0.00000000E+00  0.00000000E+00  0.00000000E+00
  0.00000000E+00  0.00000000E+00  0.00000000E+00
  0.00000000E+00  0.00000000E+00  0.00000000E+00
  0.00000000E+00  0.00000000E+00  0.00000000E+00
  0.00000000E+00  0.00000000E+00  0.00000000E+00
  0.00000000E+00  0.00000000E+00  0.00000000E+00
  0.00000000E+00  0.00000000E+00  0.00000000E+00
  0.00000000E+00  0.00000000E+00  0.00000000E+00
  0.00000000E+00  0.00000000E+00  0.00000000E+00
  0.00000000E+00  0.00000000E+00  0.00000000E+00
  0.00000000E+00  0.00000000E+00  0.00000000E+00
  0.00000000E+00  0.00000000E+00  0.00000000E+00
  0.00000000E+00  0.00000000E+00  0.00000000E+00
  0.00000000E+00  0.00000000E+00  0.00000000E+00
  0.00000000E+00  0.00000000E+00  0.00000000E+00
  0.00000000E+00  0.00000000E+00  0.00000000E+00
  0.00000000E+00  0.00000000E+00  0.00000000E+00
  0.00000000E+00  0.00000000E+00  0.00000000E+00
  0.00000000E+00  0.00000000E+00  0.00000000E+00
  0.00000000E+00  0.00000000E+00  0.00000000E+00
  0.00000000E+00  0.00000000E+00  0.00000000E+00
  0.00000000E+00  0.00000000E+00  0.00000000E+00
  0.00000000E+00  0.00000000E+00  0.00000000E+00
  0.00000000E+00  0.00000000E+00  0.00000000E+00
  0.00000000E+00  0.00000000E+00  0.00000000E+00
