mode: manual_set, kpt density: 2, factor: 1, # kpts: 1
0
Gamma
2 2 2
0.5 0.5 0.5
