SrZn2N2-2x2x1
1.0
   12.26101842025313      0.00000000520564      0.00000000000000
   -6.13050921463478     10.61835342560533      0.00000000000000
    0.00000000000000      0.00000000000000      6.23536613094725
Sr Zn N
 12 24 24
Direct
    0.10000000000000      0.00000000000000      0.00000000000000 # Sr1
    0.50000000000000      0.00000000000000      0.00000000000000 # Sr2
    0.00000000000000      0.50000000000000      0.00000000000000 # Sr3
    0.50000000000000      0.50000000000000      0.00000000000000 # Sr4
    0.16666666666667      0.33333333333333      0.99971346482320 # Sr5
    0.66666666666667      0.33333333333333      0.99971346482320 # Sr6
    0.16666666666667      0.83333333333333      0.99971346482320 # Sr7
    0.66666666666667      0.83333333333333      0.99971346482320 # Sr8
    0.33333333333333      0.16666666666667      0.00028653517680 # Sr9
    0.83333333333333      0.16666666666667      0.00028653517680 # Sr10
    0.33333333333333      0.66666666666667      0.00028653517680 # Sr11
    0.83333333333333      0.66666666666667      0.00028653517680 # Sr12
    0.16674434308037      0.00015946977635      0.62913290237108 # Zn1
    0.66674434308037      0.00015946977635      0.62913290237108 # Zn2
    0.16674434308037      0.50015946977635      0.62913290237108 # Zn3
    0.66674434308037      0.50015946977635      0.62913290237108 # Zn4
    0.49984053022365      0.16658487330403      0.62913290237108 # Zn5
    0.99984053022365      0.16658487330403      0.62913290237108 # Zn6
    0.49984053022365      0.66658487330403      0.62913290237108 # Zn7
    0.99984053022365      0.66658487330403      0.62913290237108 # Zn8
    0.33341512669597      0.33325565691963      0.62913290237108 # Zn9
    0.83341512669597      0.33325565691963      0.62913290237108 # Zn10
    0.33341512669597      0.83325565691963      0.62913290237108 # Zn11
    0.83341512669597      0.83325565691963      0.62913290237108 # Zn12
    0.33325565691963      0.49984053022365      0.37086709762892 # Zn13
    0.83325565691963      0.49984053022365      0.37086709762892 # Zn14
    0.33325565691963      0.99984053022365      0.37086709762892 # Zn15
    0.83325565691963      0.99984053022365      0.37086709762892 # Zn16
    0.00015946977635      0.33341512669597      0.37086709762892 # Zn17
    0.50015946977635      0.33341512669597      0.37086709762892 # Zn18
    0.00015946977635      0.83341512669597      0.37086709762892 # Zn19
    0.50015946977635      0.83341512669597      0.37086709762892 # Zn20
    0.16658487330403      0.16674434308037      0.37086709762892 # Zn21
    0.66658487330403      0.16674434308037      0.37086709762892 # Zn22
    0.16658487330403      0.66674434308037      0.37086709762892 # Zn23
    0.66658487330403      0.66674434308037      0.37086709762892 # Zn24
    0.16668376061566      0.00003318836541      0.27596675174719 # N1
    0.66668376061566      0.00003318836541      0.27596675174719 # N2
    0.16668376061566      0.50003318836541      0.27596675174719 # N3
    0.66668376061566      0.50003318836541      0.27596675174719 # N4
    0.49996681163459      0.16665057225025      0.27596675174719 # N5
    0.99996681163459      0.16665057225025      0.27596675174719 # N6
    0.49996681163459      0.66665057225025      0.27596675174719 # N7
    0.99996681163459      0.66665057225025      0.27596675174719 # N8
    0.33334942774975      0.33331623938434      0.27596675174719 # N9
    0.83334942774975      0.33331623938434      0.27596675174719 # N10
    0.33334942774975      0.83331623938434      0.27596675174719 # N11
    0.83334942774975      0.83331623938434      0.27596675174719 # N12
    0.33331623938434      0.49996681163459      0.72403324825281 # N13
    0.83331623938434      0.49996681163459      0.72403324825281 # N14
    0.33331623938434      0.99996681163459      0.72403324825281 # N15
    0.83331623938434      0.99996681163459      0.72403324825281 # N16
    0.00003318836541      0.33334942774975      0.72403324825281 # N17
    0.50003318836541      0.33334942774975      0.72403324825281 # N18
    0.00003318836541      0.83334942774975      0.72403324825281 # N19
    0.50003318836541      0.83334942774975      0.72403324825281 # N20
    0.16665057225025      0.16668376061566      0.72403324825281 # N21
    0.66665057225025      0.16668376061566      0.72403324825281 # N22
    0.16665057225025      0.66668376061566      0.72403324825281 # N23
    0.66665057225025      0.66668376061566      0.72403324825281 # N24
