Mg O-2x2x2
1.0
    0.00000000000000      4.24689301962520      4.24689301962520
    4.24689301962520      0.00000000000000      4.24689301962520
    4.24689301962520      4.24689301962520      0.00000000000000
Mg O Mg 
 6 8  2
Direct
    0.00000000000000      0.50000000000000      0.00000000000000 # A3
    0.50000000000000      0.50000000000000      0.00000000000000 # A4
    0.00000000000000      0.00000000000000      0.50000000000000 # A5
    0.50000000000000      0.00000000000000      0.50000000000000 # A6
    0.00000000000000      0.50000000000000      0.50000000000000 # A7
    0.50000000000000      0.50000000000000      0.50000000000000 # A8
    0.25000000000000      0.25000000000000      0.25000000000000 # B1
    0.75000000000000      0.25000000000000      0.25000000000000 # B2
    0.25000000000000      0.75000000000000      0.25000000000000 # B3
    0.75000000000000      0.75000000000000      0.25000000000000 # B4
    0.25000000000000      0.25000000000000      0.75000000000000 # B5
    0.75000000000000      0.25000000000000      0.75000000000000 # B6
    0.25000000000000      0.75000000000000      0.75000000000000 # B7
    0.75000000000000      0.75000000000000      0.75000000000000 # B8
    0.00000000000000      0.00000000000000      0.00000000000000 # A1
    0.50000000000000      0.00000000000000      0.00000000000000 # A2
