Ba24 Zn12 N23
1.0
8.368575 0.000000 0.000000
0.000000 12.552863 0.000000
0.000000 0.000000 13.054148
Ba Zn N
24 12 23
direct
0.246772 0.827235 0.162121 Ba
0.250000 0.500000 0.156714 Ba
-0.000000 0.666667 -0.343286 Ba
0.250000 0.166667 0.156714 Ba
-0.000000 0.333333 -0.343286 Ba
-0.000000 0.000000 -0.343286 Ba
0.750000 0.833333 0.156714 Ba
0.750000 0.500000 0.156714 Ba
0.500000 0.666667 -0.343286 Ba
0.750000 0.166667 0.156714 Ba
0.500000 0.333333 -0.343286 Ba
0.500000 0.000000 -0.343286 Ba
0.508033 0.665568 0.346064 Ba
0.500000 0.333333 0.343286 Ba
0.250000 0.500000 -0.156714 Ba
0.495215 0.999853 0.354221 Ba
0.250000 0.166667 -0.156714 Ba
0.250000 -0.166667 -0.156714 Ba
0.007420 0.667137 0.350651 Ba
1.000000 0.333333 0.343286 Ba
0.750000 0.500000 -0.156714 Ba
0.004531 0.004420 0.343053 Ba
0.750000 0.166667 -0.156714 Ba
0.750000 -0.166667 -0.156714 Ba
0.245653 0.834670 0.499215 Zn
0.250000 0.500000 0.500000 Zn
0.000000 0.666667 0.000000 Zn
0.250000 0.166667 0.500000 Zn
0.000000 0.333333 0.000000 Zn
0.000000 0.000000 0.000000 Zn
0.750000 0.833333 0.500000 Zn
0.750000 0.500000 0.500000 Zn
0.500000 0.666667 0.000000 Zn
0.750000 0.166667 0.500000 Zn
0.500000 0.333333 0.000000 Zn
0.500000 0.000000 0.000000 Zn
0.250000 0.500000 0.359634 N
-0.000000 0.666667 -0.140366 N
0.250000 0.166667 0.359634 N
-0.000000 0.333333 -0.140366 N
-0.000000 0.000000 -0.140366 N
0.750000 0.833333 0.359634 N
0.750000 0.500000 0.359634 N
0.500000 0.666667 -0.140366 N
0.750000 0.166667 0.359634 N
0.500000 0.333333 -0.140366 N
0.500000 0.000000 -0.140366 N
0.500000 0.666667 0.140366 N
0.500000 0.333333 0.140366 N
0.250000 0.500000 -0.359634 N
0.500000 -0.000000 0.140366 N
0.250000 0.166667 -0.359634 N
0.250000 -0.166667 -0.359634 N
1.000000 0.666667 0.140366 N
1.000000 0.333333 0.140366 N
0.750000 0.500000 -0.359634 N
1.000000 -0.000000 0.140366 N
0.750000 0.166667 -0.359634 N
0.750000 -0.166667 -0.359634 N
