Mg32 O33
1.0
8.493786 0.000000 0.000000
-0.000000 8.493786 0.000000
0.000000 0.000000 8.493786
Mg O
32 33
direct
0.002914 0.992107 0.006858 Mg
0.000000 0.000000 0.500000 Mg
0.000000 0.500000 0.000000 Mg
0.000000 0.500000 0.500000 Mg
0.500000 0.000000 0.000000 Mg
0.500000 0.000000 0.500000 Mg
0.500000 0.500000 0.000000 Mg
0.500000 0.500000 0.500000 Mg
0.000473 0.250211 0.249336 Mg
0.000000 0.250000 0.750000 Mg
0.000000 0.750000 0.250000 Mg
0.000000 0.750000 0.750000 Mg
0.500000 0.250000 0.250000 Mg
0.500000 0.250000 0.750000 Mg
0.500000 0.750000 0.250000 Mg
0.500000 0.750000 0.750000 Mg
0.240820 0.002270 0.255361 Mg
0.250000 0.000000 0.750000 Mg
0.250000 0.500000 0.250000 Mg
0.250000 0.500000 0.750000 Mg
0.750000 0.000000 0.250000 Mg
0.750000 0.000000 0.750000 Mg
0.750000 0.500000 0.250000 Mg
0.750000 0.500000 0.750000 Mg
0.252675 0.247013 0.995490 Mg
0.250000 0.250000 0.500000 Mg
0.250000 0.750000 0.000000 Mg
0.250000 0.750000 0.500000 Mg
0.750000 0.250000 0.000000 Mg
0.750000 0.250000 0.500000 Mg
0.750000 0.750000 0.000000 Mg
0.750000 0.750000 0.500000 Mg
0.091940 0.094545 0.110412 O
0.250000 0.250000 0.250000 O
0.250000 0.250000 0.750000 O
0.250000 0.750000 0.250000 O
0.250000 0.750000 0.750000 O
0.750000 0.250000 0.250000 O
0.750000 0.250000 0.750000 O
0.750000 0.750000 0.250000 O
0.750000 0.750000 0.750000 O
0.234740 0.998957 0.995408 O
0.250000 0.000000 0.500000 O
0.250000 0.500000 0.000000 O
0.250000 0.500000 0.500000 O
0.750000 0.000000 0.000000 O
0.750000 0.000000 0.500000 O
0.750000 0.500000 0.000000 O
0.750000 0.500000 0.500000 O
0.005459 0.253969 0.010385 O
0.000000 0.250000 0.500000 O
0.000000 0.750000 0.000000 O
0.000000 0.750000 0.500000 O
0.500000 0.250000 0.000000 O
0.500000 0.250000 0.500000 O
0.500000 0.750000 0.000000 O
0.500000 0.750000 0.500000 O
0.994133 0.998203 0.240583 O
0.000000 0.000000 0.750000 O
0.000000 0.500000 0.250000 O
0.000000 0.500000 0.750000 O
0.500000 0.000000 0.250000 O
0.500000 0.000000 0.750000 O
0.500000 0.500000 0.250000 O
0.500000 0.500000 0.750000 O
