# algorithm
ALGO  =  Normal

# accuracy
PREC    =  N
LREAL   =  Auto
LASPH   =  True
ENCUT   =  325.0
NELM    =  100
NELMIN  =  2
EDIFF   =  1e-06

# ionic relaxation
ISIF    =   2
EDIFFG  =  -0.01
IBRION  =   2
NSW     =  50

# occupation
ISMEAR  =  0
SIGMA   =  0.1

# IO control
LWAVE   =  False
LCHARG  =  False

# dft parameter
GGA  =  Ps

# parallel
KPAR  =  1

LORBIT = 12

