mode: primitive_uniform, kpt density: 3, factor: 1, # kpts: 1
0
Gamma
1 1 1
