CO                                      
   1.00000000000000     
    10.0000000000000000    0.0000000000000000    0.0000000000000000
     0.0000000000000000   10.0999999999999996    0.0000000000000000
     0.0000000000000000    0.0000000000000000   10.1999999999999993
   C    O 
     1     1
Direct
 -0.0570951760787724  0.0000000000000000  0.0000000000000000
  0.0570951760787724  0.0000000000000000  0.0000000000000000
 
  0.00000000E+00  0.00000000E+00  0.00000000E+00
  0.00000000E+00  0.00000000E+00  0.00000000E+00
