Mg32 O33                                
   1.00000000000000     
     8.4194560000000003    0.0000000000000000    0.0000000000000000
     0.0000000000000000    8.4194560000000003    0.0000000000000000
     0.0000000000000000    0.0000000000000000    8.4194560000000003
   Mg   O 
    32    33
Direct
  0.9929607785701862  0.9929607785701862  0.9929607785701862
  0.9978147682142975  0.9978147682142975  0.5050427210334547
  0.9978147682142975  0.5050427210334547  0.9978147682142975
  0.9999941333830620  0.5014057353715344  0.5014057353715344
  0.5050427210334547  0.9978147682142975  0.9978147682142975
  0.5014057353715344  0.9999941333830620  0.5014057353715344
  0.5014057353715344  0.5014057353715344  0.9999941333830620
  0.5001744720236516  0.5001744720236516  0.5001744720236516
  0.9929607785701862  0.2570392214298138  0.2570392214298138
  0.9978147682142975  0.2521852317857025  0.7449572789665453
  0.9978147682142975  0.7449572789665453  0.2521852317857025
  0.9999941333830620  0.7485942646284656  0.7485942646284656
  0.5050427210334547  0.2521852317857025  0.2521852317857025
  0.5014057353715344  0.2500058666169380  0.7485942646284656
  0.5014057353715344  0.7485942646284656  0.2500058666169380
  0.5001744720236516  0.7498255279763484  0.7498255279763484
  0.2570392214298138  0.9929607785701862  0.2570392214298138
  0.2521852317857025  0.9978147682142975  0.7449572789665453
  0.2521852317857025  0.5050427210334547  0.2521852317857025
  0.2500058666169380  0.5014057353715344  0.7485942646284656
  0.7449572789665453  0.9978147682142975  0.2521852317857025
  0.7485942646284656  0.9999941333830620  0.7485942646284656
  0.7485942646284656  0.5014057353715344  0.2500058666169380
  0.7498255279763484  0.5001744720236516  0.7498255279763484
  0.2570392214298138  0.2570392214298138  0.9929607785701862
  0.2521852317857025  0.2521852317857025  0.5050427210334547
  0.2521852317857025  0.7449572789665453  0.9978147682142975
  0.2500058666169380  0.7485942646284656  0.5014057353715344
  0.7449572789665453  0.2521852317857025  0.9978147682142975
  0.7485942646284656  0.2500058666169380  0.5014057353715344
  0.7485942646284656  0.7485942646284656  0.9999941333830620
  0.7498255279763484  0.7498255279763484  0.5001744720236516
  0.1250000000000000  0.1250000000000000  0.1250000000000000
  0.2722008836980763  0.9777991163019237  0.9777991163019237
  0.2502427871358606  0.9997572128641394  0.5003055322574639
  0.2502427871358606  0.5003055322574639  0.9997572128641394
  0.2501037185088819  0.5028536219010675  0.5028536219010675
  0.7496944677425361  0.9997572128641394  0.9997572128641394
  0.7471463780989325  0.9998962814911181  0.5028536219010675
  0.7471463780989325  0.5028536219010675  0.9998962814911181
  0.7502042105976088  0.4997957894023912  0.4997957894023912
  0.2722008836980763  0.2722008836980763  0.2722008836980763
  0.2502427871358606  0.2502427871358606  0.7496944677425361
  0.2502427871358606  0.7496944677425361  0.2502427871358606
  0.2501037185088819  0.7471463780989325  0.7471463780989325
  0.7496944677425361  0.2502427871358606  0.2502427871358606
  0.7471463780989325  0.2501037185088819  0.7471463780989325
  0.7471463780989325  0.7471463780989325  0.2501037185088819
  0.7502042105976088  0.7502042105976088  0.7502042105976088
  0.9777991163019237  0.9777991163019237  0.2722008836980763
  0.9997572128641394  0.9997572128641394  0.7496944677425361
  0.9997572128641394  0.5003055322574639  0.2502427871358606
  0.9998962814911181  0.5028536219010675  0.7471463780989325
  0.5003055322574639  0.9997572128641394  0.2502427871358606
  0.5028536219010675  0.9998962814911181  0.7471463780989325
  0.5028536219010675  0.5028536219010675  0.2501037185088819
  0.4997957894023912  0.4997957894023912  0.7502042105976088
  0.9777991163019237  0.2722008836980763  0.9777991163019237
  0.9997572128641394  0.2502427871358606  0.5003055322574639
  0.9997572128641394  0.7496944677425361  0.9997572128641394
  0.9998962814911181  0.7471463780989325  0.5028536219010675
  0.5003055322574639  0.2502427871358606  0.9997572128641394
  0.5028536219010675  0.2501037185088819  0.5028536219010675
  0.5028536219010675  0.7471463780989325  0.9998962814911181
  0.4997957894023912  0.7502042105976088  0.4997957894023912
 
  0.00000000E+00  0.00000000E+00  0.00000000E+00
  0.00000000E+00  0.00000000E+00  0.00000000E+00
  0.00000000E+00  0.00000000E+00  0.00000000E+00
  0.00000000E+00  0.00000000E+00  0.00000000E+00
  0.00000000E+00  0.00000000E+00  0.00000000E+00
  0.00000000E+00  0.00000000E+00  0.00000000E+00
  0.00000000E+00  0.00000000E+00  0.00000000E+00
  0.00000000E+00  0.00000000E+00  0.00000000E+00
  0.00000000E+00  0.00000000E+00  0.00000000E+00
  0.00000000E+00  0.00000000E+00  0.00000000E+00
  0.00000000E+00  0.00000000E+00  0.00000000E+00
  0.00000000E+00  0.00000000E+00  0.00000000E+00
  0.00000000E+00  0.00000000E+00  0.00000000E+00
  0.00000000E+00  0.00000000E+00  0.00000000E+00
  0.00000000E+00  0.00000000E+00  0.00000000E+00
  0.00000000E+00  0.00000000E+00  0.00000000E+00
  0.00000000E+00  0.00000000E+00  0.00000000E+00
  0.00000000E+00  0.00000000E+00  0.00000000E+00
  0.00000000E+00  0.00000000E+00  0.00000000E+00
  0.00000000E+00  0.00000000E+00  0.00000000E+00
  0.00000000E+00  0.00000000E+00  0.00000000E+00
  0.00000000E+00  0.00000000E+00  0.00000000E+00
  0.00000000E+00  0.00000000E+00  0.00000000E+00
  0.00000000E+00  0.00000000E+00  0.00000000E+00
  0.00000000E+00  0.00000000E+00  0.00000000E+00
  0.00000000E+00  0.00000000E+00  0.00000000E+00
  0.00000000E+00  0.00000000E+00  0.00000000E+00
  0.00000000E+00  0.00000000E+00  0.00000000E+00
  0.00000000E+00  0.00000000E+00  0.00000000E+00
  0.00000000E+00  0.00000000E+00  0.00000000E+00
  0.00000000E+00  0.00000000E+00  0.00000000E+00
  0.00000000E+00  0.00000000E+00  0.00000000E+00
  0.00000000E+00  0.00000000E+00  0.00000000E+00
  0.00000000E+00  0.00000000E+00  0.00000000E+00
  0.00000000E+00  0.00000000E+00  0.00000000E+00
  0.00000000E+00  0.00000000E+00  0.00000000E+00
  0.00000000E+00  0.00000000E+00  0.00000000E+00
  0.00000000E+00  0.00000000E+00  0.00000000E+00
  0.00000000E+00  0.00000000E+00  0.00000000E+00
  0.00000000E+00  0.00000000E+00  0.00000000E+00
  0.00000000E+00  0.00000000E+00  0.00000000E+00
  0.00000000E+00  0.00000000E+00  0.00000000E+00
  0.00000000E+00  0.00000000E+00  0.00000000E+00
  0.00000000E+00  0.00000000E+00  0.00000000E+00
  0.00000000E+00  0.00000000E+00  0.00000000E+00
  0.00000000E+00  0.00000000E+00  0.00000000E+00
  0.00000000E+00  0.00000000E+00  0.00000000E+00
  0.00000000E+00  0.00000000E+00  0.00000000E+00
  0.00000000E+00  0.00000000E+00  0.00000000E+00
  0.00000000E+00  0.00000000E+00  0.00000000E+00
  0.00000000E+00  0.00000000E+00  0.00000000E+00
  0.00000000E+00  0.00000000E+00  0.00000000E+00
  0.00000000E+00  0.00000000E+00  0.00000000E+00
  0.00000000E+00  0.00000000E+00  0.00000000E+00
  0.00000000E+00  0.00000000E+00  0.00000000E+00
  0.00000000E+00  0.00000000E+00  0.00000000E+00
  0.00000000E+00  0.00000000E+00  0.00000000E+00
  0.00000000E+00  0.00000000E+00  0.00000000E+00
  0.00000000E+00  0.00000000E+00  0.00000000E+00
  0.00000000E+00  0.00000000E+00  0.00000000E+00
  0.00000000E+00  0.00000000E+00  0.00000000E+00
  0.00000000E+00  0.00000000E+00  0.00000000E+00
  0.00000000E+00  0.00000000E+00  0.00000000E+00
  0.00000000E+00  0.00000000E+00  0.00000000E+00
  0.00000000E+00  0.00000000E+00  0.00000000E+00
