Mg33 O32
1.0
8.493786 0.000000 0.000000
-0.000000 8.493786 0.000000
0.000000 0.000000 8.493786
Mg O
33 32
direct
0.087031 0.098664 0.096788 Mg
0.994100 0.989016 0.999271 Mg
0.000000 0.000000 0.500000 Mg
0.000000 0.500000 0.000000 Mg
0.000000 0.500000 0.500000 Mg
0.500000 0.000000 0.000000 Mg
0.500000 0.000000 0.500000 Mg
0.500000 0.500000 0.000000 Mg
0.500000 0.500000 0.500000 Mg
0.996240 0.246519 0.257786 Mg
0.000000 0.250000 0.750000 Mg
0.000000 0.750000 0.250000 Mg
0.000000 0.750000 0.750000 Mg
0.500000 0.250000 0.250000 Mg
0.500000 0.250000 0.750000 Mg
0.500000 0.750000 0.250000 Mg
0.500000 0.750000 0.750000 Mg
0.261980 0.008872 0.250428 Mg
0.250000 0.000000 0.750000 Mg
0.250000 0.500000 0.250000 Mg
0.250000 0.500000 0.750000 Mg
0.750000 0.000000 0.250000 Mg
0.750000 0.000000 0.750000 Mg
0.750000 0.500000 0.250000 Mg
0.750000 0.500000 0.750000 Mg
0.259510 0.256980 0.002074 Mg
0.250000 0.250000 0.500000 Mg
0.250000 0.750000 0.000000 Mg
0.250000 0.750000 0.500000 Mg
0.750000 0.250000 0.000000 Mg
0.750000 0.250000 0.500000 Mg
0.750000 0.750000 0.000000 Mg
0.750000 0.750000 0.500000 Mg
0.250000 0.250000 0.250000 O
0.250000 0.250000 0.750000 O
0.250000 0.750000 0.250000 O
0.250000 0.750000 0.750000 O
0.750000 0.250000 0.250000 O
0.750000 0.250000 0.750000 O
0.750000 0.750000 0.250000 O
0.750000 0.750000 0.750000 O
0.253016 0.992353 0.001545 O
0.250000 0.000000 0.500000 O
0.250000 0.500000 0.000000 O
0.250000 0.500000 0.500000 O
0.750000 0.000000 0.000000 O
0.750000 0.000000 0.500000 O
0.750000 0.500000 0.000000 O
0.750000 0.500000 0.500000 O
0.989520 0.238372 0.995444 O
0.000000 0.250000 0.500000 O
0.000000 0.750000 0.000000 O
0.000000 0.750000 0.500000 O
0.500000 0.250000 0.000000 O
0.500000 0.250000 0.500000 O
0.500000 0.750000 0.000000 O
0.500000 0.750000 0.500000 O
0.004660 0.002379 0.256288 O
0.000000 0.000000 0.750000 O
0.000000 0.500000 0.250000 O
0.000000 0.500000 0.750000 O
0.500000 0.000000 0.250000 O
0.500000 0.000000 0.750000 O
0.500000 0.500000 0.250000 O
0.500000 0.500000 0.750000 O
