Mg8 O7                                  
   1.00000000000000     
     0.0000000000000000    4.2468930000000000    4.2468930000000000
     4.2468930000000000    0.0000000000000000    4.2468930000000000
     4.2468930000000000    4.2468930000000000    0.0000000000000000
   Mg   O 
     8     7
Direct
  0.0012150530424080  0.0002922891111794  0.9978746641575995
  0.9919075936160553  0.9920620598474201  0.5069856891332449
  0.9922517611357762  0.5093258553040698  0.9887052188358254
  0.9929424997436058  0.5088043701150013  0.5063954303906186
  0.5098440926732906  0.9911133289942597  0.9895660221864446
  0.5102147983776391  0.9910451674347556  0.5067992020353103
  0.5104271479684499  0.5093382699481452  0.9888228377890229
  0.5012998599525105  0.5003103795103527  0.4980159269475593
  0.2511451114246555  0.2503295292916192  0.7476368596331824
  0.2514080760231110  0.7506890856092809  0.2477596420807942
  0.2512579045393437  0.7507240760995728  0.7473639799695846
  0.7511252476789139  0.2501833369268098  0.2478952701402406
  0.7503151817314730  0.2502928187250930  0.7488687010147856
  0.7522201809068036  0.7492239253918456  0.2479485976475786
  0.7512334911859568  0.7502605076905908  0.7479969580382146
 
  0.00000000E+00  0.00000000E+00  0.00000000E+00
  0.00000000E+00  0.00000000E+00  0.00000000E+00
  0.00000000E+00  0.00000000E+00  0.00000000E+00
  0.00000000E+00  0.00000000E+00  0.00000000E+00
  0.00000000E+00  0.00000000E+00  0.00000000E+00
  0.00000000E+00  0.00000000E+00  0.00000000E+00
  0.00000000E+00  0.00000000E+00  0.00000000E+00
  0.00000000E+00  0.00000000E+00  0.00000000E+00
  0.00000000E+00  0.00000000E+00  0.00000000E+00
  0.00000000E+00  0.00000000E+00  0.00000000E+00
  0.00000000E+00  0.00000000E+00  0.00000000E+00
  0.00000000E+00  0.00000000E+00  0.00000000E+00
  0.00000000E+00  0.00000000E+00  0.00000000E+00
  0.00000000E+00  0.00000000E+00  0.00000000E+00
  0.00000000E+00  0.00000000E+00  0.00000000E+00
