Mg8 O7                                  
   1.00000000000000     
     0.0000000000000000    4.2468930000000000    4.2468930000000000
     4.2468930000000000    0.0000000000000000    4.2468930000000000
     4.2468930000000000    4.2468930000000000    0.0000000000000000
   Mg   O 
     8     7
Direct
  0.0012245154134334  0.0002900665483665  0.9978725601314764
  0.9918914659391262  0.9920595225432720  0.5070009586927640
  0.9922414430103288  0.5093409090783325  0.9886881075742835
  0.9929340862506777  0.5088296453843242  0.5064050234006174
  0.5098546992697734  0.9910901466996194  0.9895536032978143
  0.5102227194048865  0.9910375109589893  0.5068148775389290
  0.5104401139486328  0.5093391167467445  0.9888135453428220
  0.5012995077879268  0.5003054849031514  0.4980066966253887
  0.2511381403112338  0.2503395070119936  0.7476365653214572
  0.2514050798703593  0.7506872932887703  0.2477615467289453
  0.2512595976675343  0.7507375668764524  0.7473485592345455
  0.7511253338971855  0.2501763453873238  0.2479007972760030
  0.7502962657006407  0.2502947349509839  0.7488862591981729
  0.7522402150507901  0.7492055868514882  0.2479548466885646
  0.7512348164774707  0.7502615627701843  0.7479910529482154
 
  0.00000000E+00  0.00000000E+00  0.00000000E+00
  0.00000000E+00  0.00000000E+00  0.00000000E+00
  0.00000000E+00  0.00000000E+00  0.00000000E+00
  0.00000000E+00  0.00000000E+00  0.00000000E+00
  0.00000000E+00  0.00000000E+00  0.00000000E+00
  0.00000000E+00  0.00000000E+00  0.00000000E+00
  0.00000000E+00  0.00000000E+00  0.00000000E+00
  0.00000000E+00  0.00000000E+00  0.00000000E+00
  0.00000000E+00  0.00000000E+00  0.00000000E+00
  0.00000000E+00  0.00000000E+00  0.00000000E+00
  0.00000000E+00  0.00000000E+00  0.00000000E+00
  0.00000000E+00  0.00000000E+00  0.00000000E+00
  0.00000000E+00  0.00000000E+00  0.00000000E+00
  0.00000000E+00  0.00000000E+00  0.00000000E+00
  0.00000000E+00  0.00000000E+00  0.00000000E+00
