Mg8 O7
1.0
0.000000 4.246893 4.246893
4.246893 0.000000 4.246893
4.246893 4.246893 0.000000
Mg O
8 7
direct
0.000000 0.000000 0.000000 Mg
0.988878 0.038194 0.497497 Mg
0.007136 0.491036 0.994893 Mg
0.998765 0.505763 0.501115 Mg
0.516238 0.979342 0.996467 Mg
0.507951 0.989396 0.478648 Mg
0.499840 0.500264 0.000015 Mg
0.500000 0.500000 0.500000 Mg
0.250000 0.250000 0.750000 O
0.250000 0.750000 0.250000 O
0.250000 0.750000 0.750000 O
0.750000 0.250000 0.250000 O
0.750000 0.250000 0.750000 O
0.750000 0.750000 0.250000 O
0.750000 0.750000 0.750000 O
