ALGO = D

PREC = A
LREAL = False
LASPH = True
ENCUT = 400
NELM = 100
NELMIN = 4
EDIFF = 1e-07

ISIF = 3
NSW = 1

ISMEAR = 0
SIGMA = 0.05

LWAVE = True
LCHARG = False

