ALGO = D

PREC = A
LREAL = False
LASPH = True
ENCUT = 520.0
NELM = 100
NELMIN = 4
EDIFF = 1e-07

ISIF = 3
NSW = 1

ISMEAR = -5
SIGMA = 0.05

LWAVE = True
LCHARG = False

LORBIT = 12

LHFCALC = True
AEXX = 0.25
HFSCREEN = 0.208
PRECFOCK = F
TIME = 0.2

NPAR = 4
KPAR = 4

