ALGO = N

PREC = A
LREAL = False
LASPH = True
ENCUT = 400.0
NELM = 100
NELMIN = 4
EDIFF = 1e-06

ISIF = 0
IBRION = -1
NSW = 0

ISMEAR = 0
SIGMA = 0.05

LWAVE = False
LCHARG = False

NPAR = 4
KPAR = 4

