K-point mesh generated by pydefect.
0
Gamma
1 1 1
