Generated by pydefect. Formula: YMnO3 SG: 36
235
Reciprocal
0.0 0.0 0.0 1 None
0.125 0.0 0.0 8 None
0.25 0.0 0.0 8 None
0.375 0.0 0.0 8 None
0.5 0.0 0.0 4 None
0.125 0.125 0.0 6 None
0.25 0.125 0.0 24 None
0.375 0.125 0.0 24 None
0.5 0.125 0.0 24 None
-0.375 0.125 0.0 24 None
-0.25 0.125 0.0 24 None
-0.125 0.125 0.0 12 None
0.25 0.25 0.0 6 None
0.375 0.25 0.0 24 None
0.5 0.25 0.0 24 None
-0.375 0.25 0.0 24 None
-0.25 0.25 0.0 12 None
0.375 0.375 0.0 6 None
0.5 0.375 0.0 24 None
-0.375 0.375 0.0 12 None
0.5 0.5 0.0 3 None
0.375 0.25 0.125 24 None
0.5 0.25 0.125 48 None
-0.375 0.25 0.125 24 None
0.5 0.375 0.125 24 None
-0.375 0.375 0.125 48 None
-0.25 0.375 0.125 24 None
-0.375 0.5 0.125 12 None
-0.25 0.5 0.25 6 None
0.0 0.0 0.0 0 GAMMA
-0.021739130434782608 0.021739130434782608 0.0 0 
-0.043478260869565216 0.043478260869565216 0.0 0 
-0.06521739130434782 0.06521739130434782 0.0 0 
-0.08695652173913043 0.08695652173913043 0.0 0 
-0.10869565217391304 0.10869565217391304 0.0 0 
-0.13043478260869565 0.13043478260869565 0.0 0 
-0.15217391304347827 0.15217391304347827 0.0 0 
-0.17391304347826086 0.17391304347826086 0.0 0 
-0.1956521739130435 0.1956521739130435 0.0 0 
-0.21739130434782608 0.21739130434782608 0.0 0 
-0.2391304347826087 0.2391304347826087 0.0 0 
-0.2608695652173913 0.2608695652173913 0.0 0 
-0.2826086956521739 0.2826086956521739 0.0 0 
-0.30434782608695654 0.30434782608695654 0.0 0 
-0.32608695652173914 0.32608695652173914 0.0 0 
-0.34782608695652173 0.34782608695652173 0.0 0 
-0.3695652173913043 0.3695652173913043 0.0 0 
-0.391304347826087 0.391304347826087 0.0 0 
-0.41304347826086957 0.41304347826086957 0.0 0 
-0.43478260869565216 0.43478260869565216 0.0 0 
-0.45652173913043476 0.45652173913043476 0.0 0 
-0.4782608695652174 0.4782608695652174 0.0 0 
-0.5 0.5 0.0 0 Y
-0.48717948923920157 0.5128205107607984 0.0 0 
-0.47435897847840314 0.5256410215215969 0.0 0 
-0.4615384677176047 0.5384615322823952 0.0 0 
-0.4487179569568063 0.5512820430431937 0.0 0 
-0.4358974461960079 0.5641025538039921 0.0 0 
-0.4230769354352094 0.5769230645647906 0.0 0 
-0.41025642467441104 0.589743575325589 0.0 0 
-0.39743591391361255 0.6025640860863875 0.0 0 
-0.3846154031528142 0.6153845968471858 0.0 0 
-0.37179489239201574 0.6282051076079842 0.0 0 
-0.3589743816312173 0.6410256183687827 0.0 0 
-0.3461538708704189 0.6538461291295812 0.0 0 
-0.33333336010962045 0.6666666398903796 0.0 0 C_0
0.33333336010962045 0.33333336010962045 0.0 0 SIGMA_0
0.32098768010556045 0.32098768010556045 0.0 0 
0.3086420001015004 0.3086420001015004 0.0 0 
0.2962963200974404 0.2962963200974404 0.0 0 
0.2839506400933804 0.2839506400933804 0.0 0 
0.27160496008932034 0.27160496008932034 0.0 0 
0.25925928008526034 0.25925928008526034 0.0 0 
0.24691360008120034 0.24691360008120034 0.0 0 
0.23456792007714033 0.23456792007714033 0.0 0 
0.22222224007308028 0.22222224007308028 0.0 0 
0.20987656006902028 0.20987656006902028 0.0 0 
0.19753088006496025 0.19753088006496025 0.0 0 
0.18518520006090025 0.18518520006090025 0.0 0 
0.17283952005684025 0.17283952005684025 0.0 0 
0.16049384005278022 0.16049384005278022 0.0 0 
0.1481481600487202 0.1481481600487202 0.0 0 
0.1358024800446602 0.1358024800446602 0.0 0 
0.1234568000406002 0.1234568000406002 0.0 0 
0.11111112003654014 0.11111112003654014 0.0 0 
0.09876544003248011 0.09876544003248011 0.0 0 
0.08641976002842011 0.08641976002842011 0.0 0 
0.07407408002436011 0.07407408002436011 0.0 0 
0.061728400020300056 0.061728400020300056 0.0 0 
0.049382720016240056 0.049382720016240056 0.0 0 
0.037037040012180056 0.037037040012180056 0.0 0 
0.024691360008120056 0.024691360008120056 0.0 0 
0.012345680004060056 0.012345680004060056 0.0 0 
0.0 0.0 0.0 0 GAMMA
0.0 0.0 0.05 0 
0.0 0.0 0.1 0 
0.0 0.0 0.15 0 
0.0 0.0 0.2 0 
0.0 0.0 0.25 0 
0.0 0.0 0.3 0 
0.0 0.0 0.35 0 
0.0 0.0 0.4 0 
0.0 0.0 0.45 0 
0.0 0.0 0.5 0 Z
0.012345680004060016 0.012345680004060016 0.5 0 
0.02469136000812003 0.02469136000812003 0.5 0 
0.03703704001218005 0.03703704001218005 0.5 0 
0.04938272001624006 0.04938272001624006 0.5 0 
0.061728400020300084 0.061728400020300084 0.5 0 
0.0740740800243601 0.0740740800243601 0.5 0 
0.08641976002842011 0.08641976002842011 0.5 0 
0.09876544003248013 0.09876544003248013 0.5 0 
0.11111112003654015 0.11111112003654015 0.5 0 
0.12345680004060017 0.12345680004060017 0.5 0 
0.1358024800446602 0.1358024800446602 0.5 0 
0.1481481600487202 0.1481481600487202 0.5 0 
0.1604938400527802 0.1604938400527802 0.5 0 
0.17283952005684022 0.17283952005684022 0.5 0 
0.18518520006090025 0.18518520006090025 0.5 0 
0.19753088006496025 0.19753088006496025 0.5 0 
0.20987656006902025 0.20987656006902025 0.5 0 
0.2222222400730803 0.2222222400730803 0.5 0 
0.23456792007714033 0.23456792007714033 0.5 0 
0.24691360008120034 0.24691360008120034 0.5 0 
0.25925928008526034 0.25925928008526034 0.5 0 
0.2716049600893204 0.2716049600893204 0.5 0 
0.2839506400933804 0.2839506400933804 0.5 0 
0.2962963200974404 0.2962963200974404 0.5 0 
0.3086420001015004 0.3086420001015004 0.5 0 
0.3209876801055604 0.3209876801055604 0.5 0 
0.33333336010962045 0.33333336010962045 0.5 0 A_0
-0.33333336010962045 0.6666666398903796 0.5 0 E_0
-0.3461538708704189 0.6538461291295812 0.5 0 
-0.3589743816312173 0.6410256183687827 0.5 0 
-0.37179489239201574 0.6282051076079843 0.5 0 
-0.3846154031528142 0.6153845968471858 0.5 0 
-0.39743591391361255 0.6025640860863875 0.5 0 
-0.41025642467441104 0.589743575325589 0.5 0 
-0.4230769354352094 0.5769230645647906 0.5 0 
-0.4358974461960079 0.5641025538039921 0.5 0 
-0.4487179569568063 0.5512820430431937 0.5 0 
-0.4615384677176047 0.5384615322823953 0.5 0 
-0.47435897847840314 0.5256410215215969 0.5 0 
-0.48717948923920157 0.5128205107607984 0.5 0 
-0.5 0.5 0.5 0 T
-0.5 0.5 0.45 0 
-0.5 0.5 0.4 0 
-0.5 0.5 0.35 0 
-0.5 0.5 0.3 0 
-0.5 0.5 0.25 0 
-0.5 0.5 0.2 0 
-0.5 0.5 0.15000000000000002 0 
-0.5 0.5 0.09999999999999998 0 
-0.5 0.5 0.04999999999999999 0 
-0.5 0.5 0.0 0 Y
0.0 0.0 0.0 0 GAMMA
0.0 0.021739130434782608 0.0 0 
0.0 0.043478260869565216 0.0 0 
0.0 0.06521739130434782 0.0 0 
0.0 0.08695652173913043 0.0 0 
0.0 0.10869565217391304 0.0 0 
0.0 0.13043478260869565 0.0 0 
0.0 0.15217391304347827 0.0 0 
0.0 0.17391304347826086 0.0 0 
0.0 0.1956521739130435 0.0 0 
0.0 0.21739130434782608 0.0 0 
0.0 0.2391304347826087 0.0 0 
0.0 0.2608695652173913 0.0 0 
0.0 0.2826086956521739 0.0 0 
0.0 0.30434782608695654 0.0 0 
0.0 0.32608695652173914 0.0 0 
0.0 0.34782608695652173 0.0 0 
0.0 0.3695652173913043 0.0 0 
0.0 0.391304347826087 0.0 0 
0.0 0.41304347826086957 0.0 0 
0.0 0.43478260869565216 0.0 0 
0.0 0.45652173913043476 0.0 0 
0.0 0.4782608695652174 0.0 0 
0.0 0.5 0.0 0 S
0.0 0.5 0.05 0 
0.0 0.5 0.1 0 
0.0 0.5 0.15 0 
0.0 0.5 0.2 0 
0.0 0.5 0.25 0 
0.0 0.5 0.3 0 
0.0 0.5 0.35 0 
0.0 0.5 0.4 0 
0.0 0.5 0.45 0 
0.0 0.5 0.5 0 R
0.0 0.4782608695652174 0.5 0 
0.0 0.4565217391304348 0.5 0 
0.0 0.43478260869565216 0.5 0 
0.0 0.41304347826086957 0.5 0 
0.0 0.391304347826087 0.5 0 
0.0 0.3695652173913043 0.5 0 
0.0 0.34782608695652173 0.5 0 
0.0 0.32608695652173914 0.5 0 
0.0 0.30434782608695654 0.5 0 
0.0 0.28260869565217395 0.5 0 
0.0 0.2608695652173913 0.5 0 
0.0 0.2391304347826087 0.5 0 
0.0 0.2173913043478261 0.5 0 
0.0 0.19565217391304346 0.5 0 
0.0 0.17391304347826086 0.5 0 
0.0 0.15217391304347827 0.5 0 
0.0 0.13043478260869568 0.5 0 
0.0 0.10869565217391303 0.5 0 
0.0 0.08695652173913043 0.5 0 
0.0 0.06521739130434784 0.5 0 
0.0 0.043478260869565244 0.5 0 
0.0 0.021739130434782594 0.5 0 
0.0 0.0 0.5 0 Z
-0.021739130434782608 0.021739130434782608 0.5 0 
-0.043478260869565216 0.043478260869565216 0.5 0 
-0.06521739130434782 0.06521739130434782 0.5 0 
-0.08695652173913043 0.08695652173913043 0.5 0 
-0.10869565217391304 0.10869565217391304 0.5 0 
-0.13043478260869565 0.13043478260869565 0.5 0 
-0.15217391304347827 0.15217391304347827 0.5 0 
-0.17391304347826086 0.17391304347826086 0.5 0 
-0.1956521739130435 0.1956521739130435 0.5 0 
-0.21739130434782608 0.21739130434782608 0.5 0 
-0.2391304347826087 0.2391304347826087 0.5 0 
-0.2608695652173913 0.2608695652173913 0.5 0 
-0.2826086956521739 0.2826086956521739 0.5 0 
-0.30434782608695654 0.30434782608695654 0.5 0 
-0.32608695652173914 0.32608695652173914 0.5 0 
-0.34782608695652173 0.34782608695652173 0.5 0 
-0.3695652173913043 0.3695652173913043 0.5 0 
-0.391304347826087 0.391304347826087 0.5 0 
-0.41304347826086957 0.41304347826086957 0.5 0 
-0.43478260869565216 0.43478260869565216 0.5 0 
-0.45652173913043476 0.45652173913043476 0.5 0 
-0.4782608695652174 0.4782608695652174 0.5 0 
-0.5 0.5 0.5 0 T
