K-point mesh generated by pydefect.
0
Gamma
8 8 4
0.0 0.0 0.5
