K-point mesh generated by pydefect.
0
Gamma
8 8 8
