Generated by pydefect. task: competing_phase_molecule, 
0
Gamma
1 1 1
