Generated by pydefect. task: structure_opt, kpt density: 1.5
0
Gamma
8 8 8
