K-point mesh generated by pydefect.
0
Gamma
3 3 3
