K-point mesh generated by pydefect.
0
Gamma
4 4 2
0.0 0.0 0.5
