K-point mesh generated by pydefect.
0
Gamma
6 6 4
0.0 0.0 0.5
