K-point mesh generated by pydefect.
0
Gamma
16 16 9
0.0 0.0 0.5
