Mg216 O216
1.0
0.000000 12.740682 12.740682
12.740682 0.000000 12.740682
12.740682 12.740682 0.000000
Mg O
216 216
direct
0.000000 0.000000 0.000000 Mg
0.000000 0.000000 0.166667 Mg
0.000000 0.000000 0.333333 Mg
0.000000 0.000000 0.500000 Mg
0.000000 0.000000 0.666667 Mg
0.000000 0.000000 0.833333 Mg
0.000000 0.166667 0.000000 Mg
0.000000 0.166667 0.166667 Mg
0.000000 0.166667 0.333333 Mg
0.000000 0.166667 0.500000 Mg
-0.000000 0.166667 0.666667 Mg
0.000000 0.166667 0.833333 Mg
0.000000 0.333333 0.000000 Mg
0.000000 0.333333 0.166667 Mg
0.000000 0.333333 0.333333 Mg
-0.000000 0.333333 0.500000 Mg
0.000000 0.333333 0.666667 Mg
-0.000000 0.333333 0.833333 Mg
0.000000 0.500000 0.000000 Mg
-0.000000 0.500000 0.166667 Mg
0.000000 0.500000 0.333333 Mg
0.000000 0.500000 0.500000 Mg
-0.000000 0.500000 0.666667 Mg
0.000000 0.500000 0.833333 Mg
0.000000 0.666667 0.000000 Mg
-0.000000 0.666667 0.166667 Mg
0.000000 0.666667 0.333333 Mg
-0.000000 0.666667 0.500000 Mg
0.000000 0.666667 0.666667 Mg
0.000000 0.666667 0.833333 Mg
0.000000 0.833333 0.000000 Mg
0.000000 0.833333 0.166667 Mg
-0.000000 0.833333 0.333333 Mg
0.000000 0.833333 0.500000 Mg
0.000000 0.833333 0.666667 Mg
0.000000 0.833333 0.833333 Mg
0.166667 0.000000 0.000000 Mg
0.166667 0.000000 0.166667 Mg
0.166667 0.000000 0.333333 Mg
0.166667 0.000000 0.500000 Mg
0.166667 -0.000000 0.666667 Mg
0.166667 0.000000 0.833333 Mg
0.166667 0.166667 0.000000 Mg
0.166667 0.166667 0.166667 Mg
0.166667 0.166667 0.333333 Mg
0.166667 0.166667 0.500000 Mg
0.166667 0.166667 0.666667 Mg
0.166667 0.166667 0.833333 Mg
0.166667 0.333333 0.000000 Mg
0.166667 0.333333 0.166667 Mg
0.166667 0.333333 0.333333 Mg
0.166667 0.333333 0.500000 Mg
0.166667 0.333333 0.666667 Mg
0.166667 0.333333 0.833333 Mg
0.166667 0.500000 0.000000 Mg
0.166667 0.500000 0.166667 Mg
0.166667 0.500000 0.333333 Mg
0.166667 0.500000 0.500000 Mg
0.166667 0.500000 0.666667 Mg
0.166667 0.500000 0.833333 Mg
0.166667 0.666667 -0.000000 Mg
0.166667 0.666667 0.166667 Mg
0.166667 0.666667 0.333333 Mg
0.166667 0.666667 0.500000 Mg
0.166667 0.666667 0.666667 Mg
0.166667 0.666667 0.833333 Mg
0.166667 0.833333 0.000000 Mg
0.166667 0.833333 0.166667 Mg
0.166667 0.833333 0.333333 Mg
0.166667 0.833333 0.500000 Mg
0.166667 0.833333 0.666667 Mg
0.166667 0.833333 0.833333 Mg
0.333333 0.000000 0.000000 Mg
0.333333 0.000000 0.166667 Mg
0.333333 0.000000 0.333333 Mg
0.333333 -0.000000 0.500000 Mg
0.333333 0.000000 0.666667 Mg
0.333333 -0.000000 0.833333 Mg
0.333333 0.166667 0.000000 Mg
0.333333 0.166667 0.166667 Mg
0.333333 0.166667 0.333333 Mg
0.333333 0.166667 0.500000 Mg
0.333333 0.166667 0.666667 Mg
0.333333 0.166667 0.833333 Mg
0.333333 0.333333 0.000000 Mg
0.333333 0.333333 0.166667 Mg
0.333333 0.333333 0.333333 Mg
0.333333 0.333333 0.500000 Mg
0.333333 0.333333 0.666667 Mg
0.333333 0.333333 0.833333 Mg
0.333333 0.500000 -0.000000 Mg
0.333333 0.500000 0.166667 Mg
0.333333 0.500000 0.333333 Mg
0.333333 0.500000 0.500000 Mg
0.333333 0.500000 0.666667 Mg
0.333333 0.500000 0.833333 Mg
0.333333 0.666667 0.000000 Mg
0.333333 0.666667 0.166667 Mg
0.333333 0.666667 0.333333 Mg
0.333333 0.666667 0.500000 Mg
0.333333 0.666667 0.666667 Mg
0.333333 0.666667 0.833333 Mg
0.333333 0.833333 0.000000 Mg
0.333333 0.833333 0.166667 Mg
0.333333 0.833333 0.333333 Mg
0.333333 0.833333 0.500000 Mg
0.333333 0.833333 0.666667 Mg
0.333333 0.833333 0.833333 Mg
0.500000 0.000000 0.000000 Mg
0.500000 -0.000000 0.166667 Mg
0.500000 0.000000 0.333333 Mg
0.500000 0.000000 0.500000 Mg
0.500000 -0.000000 0.666667 Mg
0.500000 0.000000 0.833333 Mg
0.500000 0.166667 -0.000000 Mg
0.500000 0.166667 0.166667 Mg
0.500000 0.166667 0.333333 Mg
0.500000 0.166667 0.500000 Mg
0.500000 0.166667 0.666667 Mg
0.500000 0.166667 0.833333 Mg
0.500000 0.333333 -0.000000 Mg
0.500000 0.333333 0.166667 Mg
0.500000 0.333333 0.333333 Mg
0.500000 0.333333 0.500000 Mg
0.500000 0.333333 0.666667 Mg
0.500000 0.333333 0.833333 Mg
0.500000 0.500000 0.000000 Mg
0.500000 0.500000 0.166667 Mg
0.500000 0.500000 0.333333 Mg
0.500000 0.500000 0.500000 Mg
0.500000 0.500000 0.666667 Mg
0.500000 0.500000 0.833333 Mg
0.500000 0.666667 -0.000000 Mg
0.500000 0.666667 0.166667 Mg
0.500000 0.666667 0.333333 Mg
0.500000 0.666667 0.500000 Mg
0.500000 0.666667 0.666667 Mg
0.500000 0.666667 0.833333 Mg
0.500000 0.833333 0.000000 Mg
0.500000 0.833333 0.166667 Mg
0.500000 0.833333 0.333333 Mg
0.500000 0.833333 0.500000 Mg
0.500000 0.833333 0.666667 Mg
0.500000 0.833333 0.833333 Mg
0.666667 0.000000 0.000000 Mg
0.666667 -0.000000 0.166667 Mg
0.666667 0.000000 0.333333 Mg
0.666667 -0.000000 0.500000 Mg
0.666667 0.000000 0.666667 Mg
0.666667 0.000000 0.833333 Mg
0.666667 0.166667 -0.000000 Mg
0.666667 0.166667 0.166667 Mg
0.666667 0.166667 0.333333 Mg
0.666667 0.166667 0.500000 Mg
0.666667 0.166667 0.666667 Mg
0.666667 0.166667 0.833333 Mg
0.666667 0.333333 0.000000 Mg
0.666667 0.333333 0.166667 Mg
0.666667 0.333333 0.333333 Mg
0.666667 0.333333 0.500000 Mg
0.666667 0.333333 0.666667 Mg
0.666667 0.333333 0.833333 Mg
0.666667 0.500000 -0.000000 Mg
0.666667 0.500000 0.166667 Mg
0.666667 0.500000 0.333333 Mg
0.666667 0.500000 0.500000 Mg
0.666667 0.500000 0.666667 Mg
0.666667 0.500000 0.833333 Mg
0.666667 0.666667 0.000000 Mg
0.666667 0.666667 0.166667 Mg
0.666667 0.666667 0.333333 Mg
0.666667 0.666667 0.500000 Mg
0.666667 0.666667 0.666667 Mg
0.666667 0.666667 0.833333 Mg
0.666667 0.833333 0.000000 Mg
0.666667 0.833333 0.166667 Mg
0.666667 0.833333 0.333333 Mg
0.666667 0.833333 0.500000 Mg
0.666667 0.833333 0.666667 Mg
0.666667 0.833333 0.833333 Mg
0.833333 0.000000 0.000000 Mg
0.833333 0.000000 0.166667 Mg
0.833333 -0.000000 0.333333 Mg
0.833333 0.000000 0.500000 Mg
0.833333 0.000000 0.666667 Mg
0.833333 0.000000 0.833333 Mg
0.833333 0.166667 0.000000 Mg
0.833333 0.166667 0.166667 Mg
0.833333 0.166667 0.333333 Mg
0.833333 0.166667 0.500000 Mg
0.833333 0.166667 0.666667 Mg
0.833333 0.166667 0.833333 Mg
0.833333 0.333333 0.000000 Mg
0.833333 0.333333 0.166667 Mg
0.833333 0.333333 0.333333 Mg
0.833333 0.333333 0.500000 Mg
0.833333 0.333333 0.666667 Mg
0.833333 0.333333 0.833333 Mg
0.833333 0.500000 0.000000 Mg
0.833333 0.500000 0.166667 Mg
0.833333 0.500000 0.333333 Mg
0.833333 0.500000 0.500000 Mg
0.833333 0.500000 0.666667 Mg
0.833333 0.500000 0.833333 Mg
0.833333 0.666667 0.000000 Mg
0.833333 0.666667 0.166667 Mg
0.833333 0.666667 0.333333 Mg
0.833333 0.666667 0.500000 Mg
0.833333 0.666667 0.666667 Mg
0.833333 0.666667 0.833333 Mg
0.833333 0.833333 0.000000 Mg
0.833333 0.833333 0.166667 Mg
0.833333 0.833333 0.333333 Mg
0.833333 0.833333 0.500000 Mg
0.833333 0.833333 0.666667 Mg
0.833333 0.833333 0.833333 Mg
0.083333 0.083333 0.083333 O
0.083333 0.083333 0.250000 O
0.083333 0.083333 0.416667 O
0.083333 0.083333 0.583333 O
0.083333 0.083333 0.750000 O
0.083333 0.083333 0.916667 O
0.083333 0.250000 0.083333 O
0.083333 0.250000 0.250000 O
0.083333 0.250000 0.416667 O
0.083333 0.250000 0.583333 O
0.083333 0.250000 0.750000 O
0.083333 0.250000 0.916667 O
0.083333 0.416667 0.083333 O
0.083333 0.416667 0.250000 O
0.083333 0.416667 0.416667 O
0.083333 0.416667 0.583333 O
0.083333 0.416667 0.750000 O
0.083333 0.416667 0.916667 O
0.083333 0.583333 0.083333 O
0.083333 0.583333 0.250000 O
0.083333 0.583333 0.416667 O
0.083333 0.583333 0.583333 O
0.083333 0.583333 0.750000 O
0.083333 0.583333 0.916667 O
0.083333 0.750000 0.083333 O
0.083333 0.750000 0.250000 O
0.083333 0.750000 0.416667 O
0.083333 0.750000 0.583333 O
0.083333 0.750000 0.750000 O
0.083333 0.750000 0.916667 O
0.083333 0.916667 0.083333 O
0.083333 0.916667 0.250000 O
0.083333 0.916667 0.416667 O
0.083333 0.916667 0.583333 O
0.083333 0.916667 0.750000 O
0.083333 0.916667 0.916667 O
0.250000 0.083333 0.083333 O
0.250000 0.083333 0.250000 O
0.250000 0.083333 0.416667 O
0.250000 0.083333 0.583333 O
0.250000 0.083333 0.750000 O
0.250000 0.083333 0.916667 O
0.250000 0.250000 0.083333 O
0.250000 0.250000 0.250000 O
0.250000 0.250000 0.416667 O
0.250000 0.250000 0.583333 O
0.250000 0.250000 0.750000 O
0.250000 0.250000 0.916667 O
0.250000 0.416667 0.083333 O
0.250000 0.416667 0.250000 O
0.250000 0.416667 0.416667 O
0.250000 0.416667 0.583333 O
0.250000 0.416667 0.750000 O
0.250000 0.416667 0.916667 O
0.250000 0.583333 0.083333 O
0.250000 0.583333 0.250000 O
0.250000 0.583333 0.416667 O
0.250000 0.583333 0.583333 O
0.250000 0.583333 0.750000 O
0.250000 0.583333 0.916667 O
0.250000 0.750000 0.083333 O
0.250000 0.750000 0.250000 O
0.250000 0.750000 0.416667 O
0.250000 0.750000 0.583333 O
0.250000 0.750000 0.750000 O
0.250000 0.750000 0.916667 O
0.250000 0.916667 0.083333 O
0.250000 0.916667 0.250000 O
0.250000 0.916667 0.416667 O
0.250000 0.916667 0.583333 O
0.250000 0.916667 0.750000 O
0.250000 0.916667 0.916667 O
0.416667 0.083333 0.083333 O
0.416667 0.083333 0.250000 O
0.416667 0.083333 0.416667 O
0.416667 0.083333 0.583333 O
0.416667 0.083333 0.750000 O
0.416667 0.083333 0.916667 O
0.416667 0.250000 0.083333 O
0.416667 0.250000 0.250000 O
0.416667 0.250000 0.416667 O
0.416667 0.250000 0.583333 O
0.416667 0.250000 0.750000 O
0.416667 0.250000 0.916667 O
0.416667 0.416667 0.083333 O
0.416667 0.416667 0.250000 O
0.416667 0.416667 0.416667 O
0.416667 0.416667 0.583333 O
0.416667 0.416667 0.750000 O
0.416667 0.416667 0.916667 O
0.416667 0.583333 0.083333 O
0.416667 0.583333 0.250000 O
0.416667 0.583333 0.416667 O
0.416667 0.583333 0.583333 O
0.416667 0.583333 0.750000 O
0.416667 0.583333 0.916667 O
0.416667 0.750000 0.083333 O
0.416667 0.750000 0.250000 O
0.416667 0.750000 0.416667 O
0.416667 0.750000 0.583333 O
0.416667 0.750000 0.750000 O
0.416667 0.750000 0.916667 O
0.416667 0.916667 0.083333 O
0.416667 0.916667 0.250000 O
0.416667 0.916667 0.416667 O
0.416667 0.916667 0.583333 O
0.416667 0.916667 0.750000 O
0.416667 0.916667 0.916667 O
0.583333 0.083333 0.083333 O
0.583333 0.083333 0.250000 O
0.583333 0.083333 0.416667 O
0.583333 0.083333 0.583333 O
0.583333 0.083333 0.750000 O
0.583333 0.083333 0.916667 O
0.583333 0.250000 0.083333 O
0.583333 0.250000 0.250000 O
0.583333 0.250000 0.416667 O
0.583333 0.250000 0.583333 O
0.583333 0.250000 0.750000 O
0.583333 0.250000 0.916667 O
0.583333 0.416667 0.083333 O
0.583333 0.416667 0.250000 O
0.583333 0.416667 0.416667 O
0.583333 0.416667 0.583333 O
0.583333 0.416667 0.750000 O
0.583333 0.416667 0.916667 O
0.583333 0.583333 0.083333 O
0.583333 0.583333 0.250000 O
0.583333 0.583333 0.416667 O
0.583333 0.583333 0.583333 O
0.583333 0.583333 0.750000 O
0.583333 0.583333 0.916667 O
0.583333 0.750000 0.083333 O
0.583333 0.750000 0.250000 O
0.583333 0.750000 0.416667 O
0.583333 0.750000 0.583333 O
0.583333 0.750000 0.750000 O
0.583333 0.750000 0.916667 O
0.583333 0.916667 0.083333 O
0.583333 0.916667 0.250000 O
0.583333 0.916667 0.416667 O
0.583333 0.916667 0.583333 O
0.583333 0.916667 0.750000 O
0.583333 0.916667 0.916667 O
0.750000 0.083333 0.083333 O
0.750000 0.083333 0.250000 O
0.750000 0.083333 0.416667 O
0.750000 0.083333 0.583333 O
0.750000 0.083333 0.750000 O
0.750000 0.083333 0.916667 O
0.750000 0.250000 0.083333 O
0.750000 0.250000 0.250000 O
0.750000 0.250000 0.416667 O
0.750000 0.250000 0.583333 O
0.750000 0.250000 0.750000 O
0.750000 0.250000 0.916667 O
0.750000 0.416667 0.083333 O
0.750000 0.416667 0.250000 O
0.750000 0.416667 0.416667 O
0.750000 0.416667 0.583333 O
0.750000 0.416667 0.750000 O
0.750000 0.416667 0.916667 O
0.750000 0.583333 0.083333 O
0.750000 0.583333 0.250000 O
0.750000 0.583333 0.416667 O
0.750000 0.583333 0.583333 O
0.750000 0.583333 0.750000 O
0.750000 0.583333 0.916667 O
0.750000 0.750000 0.083333 O
0.750000 0.750000 0.250000 O
0.750000 0.750000 0.416667 O
0.750000 0.750000 0.583333 O
0.750000 0.750000 0.750000 O
0.750000 0.750000 0.916667 O
0.750000 0.916667 0.083333 O
0.750000 0.916667 0.250000 O
0.750000 0.916667 0.416667 O
0.750000 0.916667 0.583333 O
0.750000 0.916667 0.750000 O
0.750000 0.916667 0.916667 O
0.916667 0.083333 0.083333 O
0.916667 0.083333 0.250000 O
0.916667 0.083333 0.416667 O
0.916667 0.083333 0.583333 O
0.916667 0.083333 0.750000 O
0.916667 0.083333 0.916667 O
0.916667 0.250000 0.083333 O
0.916667 0.250000 0.250000 O
0.916667 0.250000 0.416667 O
0.916667 0.250000 0.583333 O
0.916667 0.250000 0.750000 O
0.916667 0.250000 0.916667 O
0.916667 0.416667 0.083333 O
0.916667 0.416667 0.250000 O
0.916667 0.416667 0.416667 O
0.916667 0.416667 0.583333 O
0.916667 0.416667 0.750000 O
0.916667 0.416667 0.916667 O
0.916667 0.583333 0.083333 O
0.916667 0.583333 0.250000 O
0.916667 0.583333 0.416667 O
0.916667 0.583333 0.583333 O
0.916667 0.583333 0.750000 O
0.916667 0.583333 0.916667 O
0.916667 0.750000 0.083333 O
0.916667 0.750000 0.250000 O
0.916667 0.750000 0.416667 O
0.916667 0.750000 0.583333 O
0.916667 0.750000 0.750000 O
0.916667 0.750000 0.916667 O
0.916667 0.916667 0.083333 O
0.916667 0.916667 0.250000 O
0.916667 0.916667 0.416667 O
0.916667 0.916667 0.583333 O
0.916667 0.916667 0.750000 O
0.916667 0.916667 0.916667 O
