K16 Zn64 P48
1.0
-7.933452 4.580381 11.216710
0.000000 -9.160762 11.216710
7.933452 4.580381 11.216710
K Zn P
16 64 48
direct
0.750000 1.250000 0.500000 K
1.000000 1.000000 0.500000 K
1.250000 0.750000 0.500000 K
0.500000 1.250000 0.750000 K
0.500000 0.500000 0.500000 K
0.750000 1.000000 0.750000 K
1.000000 0.750000 0.750000 K
1.250000 1.250000 1.000000 K
1.250000 0.500000 0.750000 K
0.500000 1.000000 1.000000 K
0.750000 0.750000 1.000000 K
1.000000 1.250000 1.250000 K
1.000000 0.500000 1.000000 K
1.250000 1.000000 1.250000 K
0.500000 0.750000 1.250000 K
0.750000 0.500000 1.250000 K
0.946131 1.446131 0.696131 Zn
1.196131 1.196131 0.696131 Zn
1.446131 0.946131 0.696131 Zn
0.696131 1.446131 0.946131 Zn
0.696131 0.696131 0.696131 Zn
0.946131 1.196131 0.946131 Zn
1.196131 0.946131 0.946131 Zn
1.446131 1.446131 1.196131 Zn
1.446131 0.696131 0.946131 Zn
0.696131 1.196131 1.196131 Zn
0.946131 0.946131 1.196131 Zn
1.196131 1.446131 1.446131 Zn
1.196131 0.696131 1.196131 Zn
1.446131 1.196131 1.446131 Zn
0.696131 0.946131 1.446131 Zn
0.946131 0.696131 1.446131 Zn
0.553869 1.053869 0.303869 Zn
0.803869 0.803869 0.303869 Zn
1.053869 0.553869 0.303869 Zn
0.303869 1.053869 0.553869 Zn
0.303869 0.303869 0.303869 Zn
0.553869 0.803869 0.553869 Zn
0.803869 0.553869 0.553869 Zn
1.053869 1.053869 0.803869 Zn
1.053869 0.303869 0.553869 Zn
0.303869 0.803869 0.803869 Zn
0.553869 0.553869 0.803869 Zn
0.803869 1.053869 1.053869 Zn
0.803869 0.303869 0.803869 Zn
1.053869 0.803869 1.053869 Zn
0.303869 0.553869 1.053869 Zn
0.553869 0.303869 1.053869 Zn
1.166211 1.666211 0.916211 Zn
1.416211 1.416211 0.916211 Zn
1.666211 1.166211 0.916211 Zn
0.916211 1.666211 1.166211 Zn
0.916211 0.916211 0.916211 Zn
1.166211 1.416211 1.166211 Zn
1.416211 1.166211 1.166211 Zn
1.666211 1.666211 1.416211 Zn
1.666211 0.916211 1.166211 Zn
0.916211 1.416211 1.416211 Zn
1.166211 1.166211 1.416211 Zn
1.416211 1.666211 1.666211 Zn
1.416211 0.916211 1.416211 Zn
1.666211 1.416211 1.666211 Zn
0.916211 1.166211 1.666211 Zn
1.166211 0.916211 1.666211 Zn
0.333789 0.833789 0.083789 Zn
0.583789 0.583789 0.083789 Zn
0.833789 0.333789 0.083789 Zn
0.083789 0.833789 0.333789 Zn
0.083789 0.083789 0.083789 Zn
0.333789 0.583789 0.333789 Zn
0.583789 0.333789 0.333789 Zn
0.833789 0.833789 0.583789 Zn
0.833789 0.083789 0.333789 Zn
0.083789 0.583789 0.583789 Zn
0.333789 0.333789 0.583789 Zn
0.583789 0.833789 0.833789 Zn
0.583789 0.083789 0.583789 Zn
0.833789 0.583789 0.833789 Zn
0.083789 0.333789 0.833789 Zn
0.333789 0.083789 0.833789 Zn
1.014789 1.514789 0.764789 P
1.264789 1.264789 0.764789 P
1.514789 1.014789 0.764789 P
0.764789 1.514789 1.014789 P
0.764789 0.764789 0.764789 P
1.014789 1.264789 1.014789 P
1.264789 1.014789 1.014789 P
1.514789 1.514789 1.264789 P
1.514789 0.764789 1.014789 P
0.764789 1.264789 1.264789 P
1.014789 1.014789 1.264789 P
1.264789 1.514789 1.514789 P
1.264789 0.764789 1.264789 P
1.514789 1.264789 1.514789 P
0.764789 1.014789 1.514789 P
1.014789 0.764789 1.514789 P
0.485211 0.985211 0.235211 P
0.735211 0.735211 0.235211 P
0.985211 0.485211 0.235211 P
0.235211 0.985211 0.485211 P
0.235211 0.235211 0.235211 P
0.485211 0.735211 0.485211 P
0.735211 0.485211 0.485211 P
0.985211 0.985211 0.735211 P
0.985211 0.235211 0.485211 P
0.235211 0.735211 0.735211 P
0.485211 0.485211 0.735211 P
0.735211 0.985211 0.985211 P
0.735211 0.235211 0.735211 P
0.985211 0.735211 0.985211 P
0.235211 0.485211 0.985211 P
0.485211 0.235211 0.985211 P
0.250000 0.750000 0.000000 P
0.500000 0.500000 -0.000000 P
0.750000 0.250000 0.000000 P
0.000000 0.750000 0.250000 P
0.000000 0.000000 0.000000 P
0.250000 0.500000 0.250000 P
0.500000 0.250000 0.250000 P
0.750000 0.750000 0.500000 P
0.750000 -0.000000 0.250000 P
-0.000000 0.500000 0.500000 P
0.250000 0.250000 0.500000 P
0.500000 0.750000 0.750000 P
0.500000 -0.000000 0.500000 P
0.750000 0.500000 0.750000 P
0.000000 0.250000 0.750000 P
0.250000 -0.000000 0.750000 P
