Mg8 O7                                  
   1.00000000000000     
     0.0000000000000000    4.2468930000000000    4.2468930000000000
     4.2468930000000000    0.0000000000000000    4.2468930000000000
     4.2468930000000000    4.2468930000000000    0.0000000000000000
   Mg   O 
     8     7
Direct
  0.0011743984922674  0.9999676091121756  0.0001448605658965
  0.9849369192187751  0.9833049946824346  0.5171910146405381
  0.9842455807633144  0.5155298387201483  0.9848092586026596
  0.9848902315074355  0.5162741186388331  0.5163569165468971
  0.5170784620790911  0.9841582432956457  0.9842507558282350
  0.5176987359149834  0.9845657227201272  0.5159802285360300
  0.5171014267940137  0.5170899486554745  0.9834827454538768
  0.5008831089264447  0.5003553717499827  0.5004886174551686
  0.2511007545039590  0.2501225122044488  0.7498762280017317
  0.2509225994470583  0.7509456423427636  0.2505380528145622
  0.2510725699548431  0.7495632648896233  0.7510150840273369
  0.7507486281977123  0.2502404605627149  0.2503577527267709
  0.7510838156312261  0.2501781312219791  0.7503870731747782
  0.7511588402150764  0.7500917110331144  0.2504105551861215
  0.7508909283537903  0.7500984301705316  0.7504658564393907
 
  0.00000000E+00  0.00000000E+00  0.00000000E+00
  0.00000000E+00  0.00000000E+00  0.00000000E+00
  0.00000000E+00  0.00000000E+00  0.00000000E+00
  0.00000000E+00  0.00000000E+00  0.00000000E+00
  0.00000000E+00  0.00000000E+00  0.00000000E+00
  0.00000000E+00  0.00000000E+00  0.00000000E+00
  0.00000000E+00  0.00000000E+00  0.00000000E+00
  0.00000000E+00  0.00000000E+00  0.00000000E+00
  0.00000000E+00  0.00000000E+00  0.00000000E+00
  0.00000000E+00  0.00000000E+00  0.00000000E+00
  0.00000000E+00  0.00000000E+00  0.00000000E+00
  0.00000000E+00  0.00000000E+00  0.00000000E+00
  0.00000000E+00  0.00000000E+00  0.00000000E+00
  0.00000000E+00  0.00000000E+00  0.00000000E+00
  0.00000000E+00  0.00000000E+00  0.00000000E+00
