Mg8 O7                                  
   1.00000000000000     
     0.0000000000000000    4.2468930000000000    4.2468930000000000
     4.2468930000000000    0.0000000000000000    4.2468930000000000
     4.2468930000000000    4.2468930000000000    0.0000000000000000
   Mg   O 
     8     7
Direct
  0.0011409570926730  0.0000035847666453  0.0001709667162686
  0.9852450244898634  0.9834624954632645  0.5170101273593843
  0.9844884611395841  0.5152643052916872  0.9850355398131612
  0.9850910261246000  0.5160703137366625  0.5161105755673674
  0.5168599480832370  0.9843842126854838  0.9844705323982268
  0.5174834562160697  0.9848177511126437  0.5157149113289492
  0.5167582368249484  0.5169592004788512  0.9836617019807150
  0.5009085527525059  0.5003158182977856  0.5004697284160144
  0.2511013781052043  0.2501074957704006  0.7499013317909871
  0.2509112709622556  0.7509091023458296  0.2505509248149096
  0.2511021160663489  0.7495731036708051  0.7510110929388034
  0.7507547197979463  0.2502366543145342  0.2503696847500194
  0.7510737455773082  0.2501921170353825  0.7504017958329925
  0.7511459940241920  0.7500901767817254  0.2504033953856535
  0.7509221127432539  0.7500996682482892  0.7504726909065340
 
  0.00000000E+00  0.00000000E+00  0.00000000E+00
  0.00000000E+00  0.00000000E+00  0.00000000E+00
  0.00000000E+00  0.00000000E+00  0.00000000E+00
  0.00000000E+00  0.00000000E+00  0.00000000E+00
  0.00000000E+00  0.00000000E+00  0.00000000E+00
  0.00000000E+00  0.00000000E+00  0.00000000E+00
  0.00000000E+00  0.00000000E+00  0.00000000E+00
  0.00000000E+00  0.00000000E+00  0.00000000E+00
  0.00000000E+00  0.00000000E+00  0.00000000E+00
  0.00000000E+00  0.00000000E+00  0.00000000E+00
  0.00000000E+00  0.00000000E+00  0.00000000E+00
  0.00000000E+00  0.00000000E+00  0.00000000E+00
  0.00000000E+00  0.00000000E+00  0.00000000E+00
  0.00000000E+00  0.00000000E+00  0.00000000E+00
  0.00000000E+00  0.00000000E+00  0.00000000E+00
