Mg32 O33
1.0
8.493786 0.000000 0.000000
0.000000 8.493786 0.000000
0.000000 0.000000 8.493786
Mg O
32 33
direct
0.000000 0.000000 0.000000 Mg
0.000000 0.000000 0.500000 Mg
0.000000 0.500000 0.000000 Mg
0.000000 0.500000 0.500000 Mg
0.500000 0.000000 0.000000 Mg
0.500000 0.000000 0.500000 Mg
0.500000 0.500000 0.000000 Mg
0.498885 0.502139 0.504680 Mg
0.994733 0.244535 0.249026 Mg
0.000000 0.250000 0.750000 Mg
0.000000 0.750000 0.250000 Mg
0.000000 0.750000 0.750000 Mg
0.498010 0.244731 0.253752 Mg
0.500000 0.250000 0.750000 Mg
0.500000 0.750000 0.250000 Mg
0.500000 0.750000 0.750000 Mg
0.246228 0.983924 0.250803 Mg
0.250000 0.000000 0.750000 Mg
0.251332 0.502867 0.262756 Mg
0.250000 0.500000 0.750000 Mg
0.750000 0.000000 0.250000 Mg
0.750000 0.000000 0.750000 Mg
0.750000 0.500000 0.250000 Mg
0.750000 0.500000 0.750000 Mg
0.249007 0.257137 0.995752 Mg
0.249317 0.249821 0.499084 Mg
0.250000 0.750000 0.000000 Mg
0.250000 0.750000 0.500000 Mg
0.750000 0.250000 0.000000 Mg
0.750000 0.250000 0.500000 Mg
0.750000 0.750000 0.000000 Mg
0.750000 0.750000 0.500000 Mg
0.293309 0.306109 0.293256 O
0.250677 0.250948 0.247611 O
0.250000 0.250000 0.750000 O
0.250000 0.750000 0.250000 O
0.250000 0.750000 0.750000 O
0.750000 0.250000 0.250000 O
0.750000 0.250000 0.750000 O
0.750000 0.750000 0.250000 O
0.750000 0.750000 0.750000 O
0.250000 0.000000 0.000000 O
0.250000 0.000000 0.500000 O
0.250000 0.500000 0.000000 O
0.254350 0.498711 0.500528 O
0.750000 0.000000 0.000000 O
0.750000 0.000000 0.500000 O
0.750000 0.500000 0.000000 O
0.750000 0.500000 0.500000 O
0.000000 0.250000 0.000000 O
0.000000 0.250000 0.500000 O
0.000000 0.750000 0.000000 O
0.000000 0.750000 0.500000 O
0.500000 0.250000 0.000000 O
0.492373 0.254533 0.499811 O
0.500000 0.750000 0.000000 O
0.500000 0.750000 0.500000 O
0.000000 0.000000 0.250000 O
0.000000 0.000000 0.750000 O
0.000000 0.500000 0.250000 O
0.000000 0.500000 0.750000 O
0.500000 0.000000 0.250000 O
0.500000 0.000000 0.750000 O
0.512743 0.510423 0.248217 O
0.500000 0.500000 0.750000 O
