Sb Li Na                                
   1.00000000000000     
     0.0000000000000000    3.3989999999999898    3.3989999999999898
     3.3989999999999898    0.0000000000000000    3.3989999999999898
     3.3989999999999898    3.3989999999999898    0.0000000000000000
   Sb   Li   Na
     1     2     1
Direct
  0.0000000000000000  0.0000000000000000  0.0000000000000000
  0.7500000000000000  0.7500000000000000  0.7500000000000000
  0.2500000000000000  0.2500000000000000  0.2500000000000000
  0.5000000000000000  0.5000000000000000  0.5000000000000000
 
  0.00000000E+00  0.00000000E+00  0.00000000E+00
  0.00000000E+00  0.00000000E+00  0.00000000E+00
  0.00000000E+00  0.00000000E+00  0.00000000E+00
  0.00000000E+00  0.00000000E+00  0.00000000E+00
