PREC = A ; LREAL = .FALSE.
LASPH = .TRUE.

ENCUT = 400
ISIF = 2 ; EDIFF = 1.0e-06 ; EDIFFG = -0.02

IBRION = 2
NSW = 20
ISMEAR = 0 ; SIGMA = 0.05
NELM = 100 ; NELMIN = 4
ALGO = N

#ISTART = 0 ; ICHARG = 2
LWAVE = .FALSE.
LCHARG = .TRUE.

LORBIT = 12
