Mg7 Al1 O8                              
   1.00000000000000     
     0.0000000000000000    4.2468930000000000    4.2468930000000000
     4.2468930000000000    0.0000000000000000    4.2468930000000000
     4.2468930000000000    4.2468930000000000    0.0000000000000000
   Al   Mg   O 
     1     7     8
Direct
  0.9940046218251624  0.0067685414494676  0.9996054214906351
  0.9965385611952939  0.0054454612614592  0.5000165153861573
  0.9961142363265836  0.5061528475815820  0.0003487379377134
  0.9969905661353948  0.5060329043744929  0.5002959452785589
  0.4943550803531664  0.0054044637411863  0.0014865976598557
  0.4955155284257771  0.0069637307452979  0.5008189406500207
  0.4958007327728993  0.5060289133664284  0.0010123610505062
  0.4963973198321412  0.5056855934818856  0.5014009779426445
  0.2455362353890820  0.2567113788911541  0.2503086782457231
  0.2406450146500632  0.2517404916230817  0.7550070868987717
  0.2418662115041315  0.7598263925435234  0.2474327692982285
  0.2405318561368830  0.7608812805853020  0.7564892752156211
  0.7519377168425549  0.2495385732417006  0.2445826497047818
  0.7529126620992415  0.2492537438359221  0.7578916705432732
  0.7523296055182698  0.7616200516116933  0.2451487578990736
  0.7452280509933615  0.7568936316658110  0.7505686147984392
 
  0.00000000E+00  0.00000000E+00  0.00000000E+00
  0.00000000E+00  0.00000000E+00  0.00000000E+00
  0.00000000E+00  0.00000000E+00  0.00000000E+00
  0.00000000E+00  0.00000000E+00  0.00000000E+00
  0.00000000E+00  0.00000000E+00  0.00000000E+00
  0.00000000E+00  0.00000000E+00  0.00000000E+00
  0.00000000E+00  0.00000000E+00  0.00000000E+00
  0.00000000E+00  0.00000000E+00  0.00000000E+00
  0.00000000E+00  0.00000000E+00  0.00000000E+00
  0.00000000E+00  0.00000000E+00  0.00000000E+00
  0.00000000E+00  0.00000000E+00  0.00000000E+00
  0.00000000E+00  0.00000000E+00  0.00000000E+00
  0.00000000E+00  0.00000000E+00  0.00000000E+00
  0.00000000E+00  0.00000000E+00  0.00000000E+00
  0.00000000E+00  0.00000000E+00  0.00000000E+00
  0.00000000E+00  0.00000000E+00  0.00000000E+00
