Mg7 Al1 O8                              
   1.00000000000000     
     0.0000000000000000    4.2468930000000000    4.2468930000000000
     4.2468930000000000    0.0000000000000000    4.2468930000000000
     4.2468930000000000    4.2468930000000000    0.0000000000000000
   Al   Mg   O 
     1     7     8
Direct
  0.9963042984556978  0.0057402750914974  0.0010899987672346
  0.9957117013028665  0.0063034097066534  0.5007453156558981
  0.9959089992230901  0.5059544174956727  0.0009310960778492
  0.9960854090251772  0.5061013691000369  0.5005674514543088
  0.4961541705177979  0.0060656788081275  0.0005437673816502
  0.4962470699789137  0.0062280584239787  0.5006336276963026
  0.4962167085049103  0.5057981779240421  0.0007952801429525
  0.4958770502140553  0.5068026783413799  0.5007936235891250
  0.2458425874183376  0.2561021256527809  0.2509144301706101
  0.2311342385685364  0.2412627823198434  0.7653794886906127
  0.2316343962918026  0.7700350432174048  0.2364868649808400
  0.2317156581609723  0.7703898835609522  0.7651140150091820
  0.7610392571600357  0.2410428559713083  0.2357758757075032
  0.7604440408438009  0.2414694561285842  0.7650095290067256
  0.7602735375394971  0.7698926043108258  0.2368166259049360
  0.7461148767945218  0.7557591839469069  0.7508180097642665
 
  0.00000000E+00  0.00000000E+00  0.00000000E+00
  0.00000000E+00  0.00000000E+00  0.00000000E+00
  0.00000000E+00  0.00000000E+00  0.00000000E+00
  0.00000000E+00  0.00000000E+00  0.00000000E+00
  0.00000000E+00  0.00000000E+00  0.00000000E+00
  0.00000000E+00  0.00000000E+00  0.00000000E+00
  0.00000000E+00  0.00000000E+00  0.00000000E+00
  0.00000000E+00  0.00000000E+00  0.00000000E+00
  0.00000000E+00  0.00000000E+00  0.00000000E+00
  0.00000000E+00  0.00000000E+00  0.00000000E+00
  0.00000000E+00  0.00000000E+00  0.00000000E+00
  0.00000000E+00  0.00000000E+00  0.00000000E+00
  0.00000000E+00  0.00000000E+00  0.00000000E+00
  0.00000000E+00  0.00000000E+00  0.00000000E+00
  0.00000000E+00  0.00000000E+00  0.00000000E+00
  0.00000000E+00  0.00000000E+00  0.00000000E+00
