Mg7 Al1 O8
1.0
0.000000 4.246893 4.246893
4.246893 0.000000 4.246893
4.246893 4.246893 0.000000
Al Mg O
1 7 8
direct
0.965997 0.029956 0.996746 Al
0.000000 0.000000 0.500000 Mg
0.000000 0.500000 0.000000 Mg
0.000000 0.500000 0.500000 Mg
0.500000 0.000000 0.000000 Mg
0.500000 0.000000 0.500000 Mg
0.500000 0.500000 0.000000 Mg
0.500000 0.500000 0.500000 Mg
0.250000 0.250000 0.250000 O
0.256793 0.250538 0.744291 O
0.262951 0.775416 0.239758 O
0.227584 0.762158 0.763697 O
0.749965 0.250017 0.249928 O
0.725058 0.250673 0.775251 O
0.748356 0.776190 0.242744 O
0.750000 0.750000 0.750000 O
