Mg32 O31                                
   1.00000000000000     
     8.4194560000000003    0.0000000000000000    0.0000000000000000
     0.0000000000000000    8.4194560000000003    0.0000000000000000
     0.0000000000000000    0.0000000000000000    8.4194560000000003
   Mg   O 
    32    31
Direct
  0.9888372169362682  0.0000000000000000  0.0000000000000000
  0.9985488982537163  0.0000000000000000  0.5000000000000000
  0.9985488982537163  0.5000000000000000  0.0000000000000000
  0.9993741246503234  0.5000000000000000  0.5000000000000000
  0.5111627830637318  0.0000000000000000  0.0000000000000000
  0.5014511017462837  0.0000000000000000  0.5000000000000000
  0.5014511017462837  0.5000000000000000  0.0000000000000000
  0.5006258753496766  0.5000000000000000  0.5000000000000000
  0.9999731443621513  0.2500268556378487  0.2500268556378487
  0.9999731443621513  0.2500268556378487  0.7499731443621513
  0.9999731443621513  0.7499731443621513  0.2500268556378487
  0.9999731443621513  0.7499731443621513  0.7499731443621513
  0.5000268556378487  0.2500268556378487  0.2500268556378487
  0.5000268556378487  0.2500268556378487  0.7499731443621513
  0.5000268556378487  0.7499731443621513  0.2500268556378487
  0.5000268556378487  0.7499731443621513  0.7499731443621513
  0.2500000000000000  0.0000000000000000  0.2611627830637318
  0.2500000000000000  0.0000000000000000  0.7388372169362682
  0.2500000000000000  0.5000000000000000  0.2514511017462837
  0.2500000000000000  0.5000000000000000  0.7485488982537163
  0.7500000000000000  0.0000000000000000  0.2514511017462837
  0.7500000000000000  0.0000000000000000  0.7485488982537163
  0.7500000000000000  0.5000000000000000  0.2506258753496766
  0.7500000000000000  0.5000000000000000  0.7493741246503234
  0.2500000000000000  0.2611627830637318  0.0000000000000000
  0.2500000000000000  0.2514511017462837  0.5000000000000000
  0.2500000000000000  0.7388372169362682  0.0000000000000000
  0.2500000000000000  0.7485488982537163  0.5000000000000000
  0.7500000000000000  0.2514511017462837  0.0000000000000000
  0.7500000000000000  0.2506258753496766  0.5000000000000000
  0.7500000000000000  0.7485488982537163  0.0000000000000000
  0.7500000000000000  0.7493741246503234  0.5000000000000000
  0.2500000000000000  0.0000000000000000  0.5000000000000000
  0.2500000000000000  0.5000000000000000  0.0000000000000000
  0.2500000000000000  0.5000000000000000  0.5000000000000000
  0.7500000000000000  0.0000000000000000  0.0000000000000000
  0.7500000000000000  0.0000000000000000  0.5000000000000000
  0.7500000000000000  0.5000000000000000  0.0000000000000000
  0.7500000000000000  0.5000000000000000  0.5000000000000000
  0.2500000000000000  0.2475598692866257  0.2475598692866257
  0.2500000000000000  0.2475598692866257  0.7524401307133743
  0.2500000000000000  0.7524401307133743  0.2475598692866257
  0.2500000000000000  0.7524401307133743  0.7524401307133743
  0.7500000000000000  0.2492359083100126  0.2492359083100126
  0.7500000000000000  0.2492359083100126  0.7507640916899874
  0.7500000000000000  0.7507640916899874  0.2492359083100126
  0.7500000000000000  0.7507640916899874  0.7507640916899874
  0.0024401307133743  0.0000000000000000  0.2475598692866257
  0.0024401307133743  0.0000000000000000  0.7524401307133743
  0.0007640916899874  0.5000000000000000  0.2492359083100126
  0.0007640916899874  0.5000000000000000  0.7507640916899874
  0.4975598692866257  0.0000000000000000  0.2475598692866257
  0.4975598692866257  0.0000000000000000  0.7524401307133743
  0.4992359083100126  0.5000000000000000  0.2492359083100126
  0.4992359083100126  0.5000000000000000  0.7507640916899874
  0.0024401307133743  0.2475598692866257  0.0000000000000000
  0.0007640916899874  0.2492359083100126  0.5000000000000000
  0.0024401307133743  0.7524401307133743  0.0000000000000000
  0.0007640916899874  0.7507640916899874  0.5000000000000000
  0.4975598692866257  0.2475598692866257  0.0000000000000000
  0.4992359083100126  0.2492359083100126  0.5000000000000000
  0.4975598692866257  0.7524401307133743  0.0000000000000000
  0.4992359083100126  0.7507640916899874  0.5000000000000000
 
  0.00000000E+00  0.00000000E+00  0.00000000E+00
  0.00000000E+00  0.00000000E+00  0.00000000E+00
  0.00000000E+00  0.00000000E+00  0.00000000E+00
  0.00000000E+00  0.00000000E+00  0.00000000E+00
  0.00000000E+00  0.00000000E+00  0.00000000E+00
  0.00000000E+00  0.00000000E+00  0.00000000E+00
  0.00000000E+00  0.00000000E+00  0.00000000E+00
  0.00000000E+00  0.00000000E+00  0.00000000E+00
  0.00000000E+00  0.00000000E+00  0.00000000E+00
  0.00000000E+00  0.00000000E+00  0.00000000E+00
  0.00000000E+00  0.00000000E+00  0.00000000E+00
  0.00000000E+00  0.00000000E+00  0.00000000E+00
  0.00000000E+00  0.00000000E+00  0.00000000E+00
  0.00000000E+00  0.00000000E+00  0.00000000E+00
  0.00000000E+00  0.00000000E+00  0.00000000E+00
  0.00000000E+00  0.00000000E+00  0.00000000E+00
  0.00000000E+00  0.00000000E+00  0.00000000E+00
  0.00000000E+00  0.00000000E+00  0.00000000E+00
  0.00000000E+00  0.00000000E+00  0.00000000E+00
  0.00000000E+00  0.00000000E+00  0.00000000E+00
  0.00000000E+00  0.00000000E+00  0.00000000E+00
  0.00000000E+00  0.00000000E+00  0.00000000E+00
  0.00000000E+00  0.00000000E+00  0.00000000E+00
  0.00000000E+00  0.00000000E+00  0.00000000E+00
  0.00000000E+00  0.00000000E+00  0.00000000E+00
  0.00000000E+00  0.00000000E+00  0.00000000E+00
  0.00000000E+00  0.00000000E+00  0.00000000E+00
  0.00000000E+00  0.00000000E+00  0.00000000E+00
  0.00000000E+00  0.00000000E+00  0.00000000E+00
  0.00000000E+00  0.00000000E+00  0.00000000E+00
  0.00000000E+00  0.00000000E+00  0.00000000E+00
  0.00000000E+00  0.00000000E+00  0.00000000E+00
  0.00000000E+00  0.00000000E+00  0.00000000E+00
  0.00000000E+00  0.00000000E+00  0.00000000E+00
  0.00000000E+00  0.00000000E+00  0.00000000E+00
  0.00000000E+00  0.00000000E+00  0.00000000E+00
  0.00000000E+00  0.00000000E+00  0.00000000E+00
  0.00000000E+00  0.00000000E+00  0.00000000E+00
  0.00000000E+00  0.00000000E+00  0.00000000E+00
  0.00000000E+00  0.00000000E+00  0.00000000E+00
  0.00000000E+00  0.00000000E+00  0.00000000E+00
  0.00000000E+00  0.00000000E+00  0.00000000E+00
  0.00000000E+00  0.00000000E+00  0.00000000E+00
  0.00000000E+00  0.00000000E+00  0.00000000E+00
  0.00000000E+00  0.00000000E+00  0.00000000E+00
  0.00000000E+00  0.00000000E+00  0.00000000E+00
  0.00000000E+00  0.00000000E+00  0.00000000E+00
  0.00000000E+00  0.00000000E+00  0.00000000E+00
  0.00000000E+00  0.00000000E+00  0.00000000E+00
  0.00000000E+00  0.00000000E+00  0.00000000E+00
  0.00000000E+00  0.00000000E+00  0.00000000E+00
  0.00000000E+00  0.00000000E+00  0.00000000E+00
  0.00000000E+00  0.00000000E+00  0.00000000E+00
  0.00000000E+00  0.00000000E+00  0.00000000E+00
  0.00000000E+00  0.00000000E+00  0.00000000E+00
  0.00000000E+00  0.00000000E+00  0.00000000E+00
  0.00000000E+00  0.00000000E+00  0.00000000E+00
  0.00000000E+00  0.00000000E+00  0.00000000E+00
  0.00000000E+00  0.00000000E+00  0.00000000E+00
  0.00000000E+00  0.00000000E+00  0.00000000E+00
  0.00000000E+00  0.00000000E+00  0.00000000E+00
  0.00000000E+00  0.00000000E+00  0.00000000E+00
  0.00000000E+00  0.00000000E+00  0.00000000E+00
