Mg32 O31                                
   1.00000000000000     
     8.4194560000000003    0.0000000000000000    0.0000000000000000
     0.0000000000000000    8.4194560000000003    0.0000000000000000
     0.0000000000000000    0.0000000000000000    8.4194560000000003
   Mg   O 
    32    31
Direct
  0.9985488984143984  0.0000000000000000  0.0000000000000000
  0.9888372177634110  0.0000000000000000  0.5000000000000000
  0.9993741257742883  0.5000000000000000  0.0000000000000000
  0.9985488984143984  0.5000000000000000  0.5000000000000000
  0.5014511015856016  0.0000000000000000  0.0000000000000000
  0.5111627822365890  0.0000000000000000  0.5000000000000000
  0.5006258742257117  0.5000000000000000  0.0000000000000000
  0.5014511015856016  0.5000000000000000  0.5000000000000000
  0.9999731440715252  0.2500268559284748  0.2499731440715252
  0.9999731440715252  0.2500268559284748  0.7500268559284748
  0.9999731440715252  0.7499731440715252  0.2499731440715252
  0.9999731440715252  0.7499731440715252  0.7500268559284748
  0.5000268559284748  0.2500268559284748  0.2499731440715252
  0.5000268559284748  0.2500268559284748  0.7500268559284748
  0.5000268559284748  0.7499731440715252  0.2499731440715252
  0.5000268559284748  0.7499731440715252  0.7500268559284748
  0.2500000000000000  0.0000000000000000  0.2388372177634110
  0.2500000000000000  0.0000000000000000  0.7611627822365890
  0.2500000000000000  0.5000000000000000  0.2485488984143984
  0.2500000000000000  0.5000000000000000  0.7514511015856016
  0.7500000000000000  0.0000000000000000  0.2485488984143984
  0.7500000000000000  0.0000000000000000  0.7514511015856016
  0.7500000000000000  0.5000000000000000  0.2493741257742883
  0.7500000000000000  0.5000000000000000  0.7506258742257117
  0.2500000000000000  0.2514511015856016  0.0000000000000000
  0.2500000000000000  0.2611627822365890  0.5000000000000000
  0.2500000000000000  0.7485488984143984  0.0000000000000000
  0.2500000000000000  0.7388372177634110  0.5000000000000000
  0.7500000000000000  0.2506258742257117  0.0000000000000000
  0.7500000000000000  0.2514511015856016  0.5000000000000000
  0.7500000000000000  0.7493741257742883  0.0000000000000000
  0.7500000000000000  0.7485488984143984  0.5000000000000000
  0.2500000000000000  0.0000000000000000  0.0000000000000000
  0.2500000000000000  0.5000000000000000  0.0000000000000000
  0.2500000000000000  0.5000000000000000  0.5000000000000000
  0.7500000000000000  0.0000000000000000  0.0000000000000000
  0.7500000000000000  0.0000000000000000  0.5000000000000000
  0.7500000000000000  0.5000000000000000  0.0000000000000000
  0.7500000000000000  0.5000000000000000  0.5000000000000000
  0.2500000000000000  0.2475598689588807  0.2524401310411193
  0.2500000000000000  0.2475598689588807  0.7475598689588807
  0.2500000000000000  0.7524401310411193  0.2524401310411193
  0.2500000000000000  0.7524401310411193  0.7475598689588807
  0.7500000000000000  0.2492359087028930  0.2507640912971070
  0.7500000000000000  0.2492359087028930  0.7492359087028930
  0.7500000000000000  0.7507640912971070  0.2507640912971070
  0.7500000000000000  0.7507640912971070  0.7492359087028930
  0.0024401310411193  0.0000000000000000  0.2524401310411193
  0.0024401310411193  0.0000000000000000  0.7475598689588807
  0.0007640912971070  0.5000000000000000  0.2507640912971070
  0.0007640912971070  0.5000000000000000  0.7492359087028930
  0.4975598689588807  0.0000000000000000  0.2524401310411193
  0.4975598689588807  0.0000000000000000  0.7475598689588807
  0.4992359087028930  0.5000000000000000  0.2507640912971070
  0.4992359087028930  0.5000000000000000  0.7492359087028930
  0.0007640912971070  0.2492359087028930  0.0000000000000000
  0.0024401310411193  0.2475598689588807  0.5000000000000000
  0.0007640912971070  0.7507640912971070  0.0000000000000000
  0.0024401310411193  0.7524401310411193  0.5000000000000000
  0.4992359087028930  0.2492359087028930  0.0000000000000000
  0.4975598689588807  0.2475598689588807  0.5000000000000000
  0.4992359087028930  0.7507640912971070  0.0000000000000000
  0.4975598689588807  0.7524401310411193  0.5000000000000000
 
  0.00000000E+00  0.00000000E+00  0.00000000E+00
  0.00000000E+00  0.00000000E+00  0.00000000E+00
  0.00000000E+00  0.00000000E+00  0.00000000E+00
  0.00000000E+00  0.00000000E+00  0.00000000E+00
  0.00000000E+00  0.00000000E+00  0.00000000E+00
  0.00000000E+00  0.00000000E+00  0.00000000E+00
  0.00000000E+00  0.00000000E+00  0.00000000E+00
  0.00000000E+00  0.00000000E+00  0.00000000E+00
  0.00000000E+00  0.00000000E+00  0.00000000E+00
  0.00000000E+00  0.00000000E+00  0.00000000E+00
  0.00000000E+00  0.00000000E+00  0.00000000E+00
  0.00000000E+00  0.00000000E+00  0.00000000E+00
  0.00000000E+00  0.00000000E+00  0.00000000E+00
  0.00000000E+00  0.00000000E+00  0.00000000E+00
  0.00000000E+00  0.00000000E+00  0.00000000E+00
  0.00000000E+00  0.00000000E+00  0.00000000E+00
  0.00000000E+00  0.00000000E+00  0.00000000E+00
  0.00000000E+00  0.00000000E+00  0.00000000E+00
  0.00000000E+00  0.00000000E+00  0.00000000E+00
  0.00000000E+00  0.00000000E+00  0.00000000E+00
  0.00000000E+00  0.00000000E+00  0.00000000E+00
  0.00000000E+00  0.00000000E+00  0.00000000E+00
  0.00000000E+00  0.00000000E+00  0.00000000E+00
  0.00000000E+00  0.00000000E+00  0.00000000E+00
  0.00000000E+00  0.00000000E+00  0.00000000E+00
  0.00000000E+00  0.00000000E+00  0.00000000E+00
  0.00000000E+00  0.00000000E+00  0.00000000E+00
  0.00000000E+00  0.00000000E+00  0.00000000E+00
  0.00000000E+00  0.00000000E+00  0.00000000E+00
  0.00000000E+00  0.00000000E+00  0.00000000E+00
  0.00000000E+00  0.00000000E+00  0.00000000E+00
  0.00000000E+00  0.00000000E+00  0.00000000E+00
  0.00000000E+00  0.00000000E+00  0.00000000E+00
  0.00000000E+00  0.00000000E+00  0.00000000E+00
  0.00000000E+00  0.00000000E+00  0.00000000E+00
  0.00000000E+00  0.00000000E+00  0.00000000E+00
  0.00000000E+00  0.00000000E+00  0.00000000E+00
  0.00000000E+00  0.00000000E+00  0.00000000E+00
  0.00000000E+00  0.00000000E+00  0.00000000E+00
  0.00000000E+00  0.00000000E+00  0.00000000E+00
  0.00000000E+00  0.00000000E+00  0.00000000E+00
  0.00000000E+00  0.00000000E+00  0.00000000E+00
  0.00000000E+00  0.00000000E+00  0.00000000E+00
  0.00000000E+00  0.00000000E+00  0.00000000E+00
  0.00000000E+00  0.00000000E+00  0.00000000E+00
  0.00000000E+00  0.00000000E+00  0.00000000E+00
  0.00000000E+00  0.00000000E+00  0.00000000E+00
  0.00000000E+00  0.00000000E+00  0.00000000E+00
  0.00000000E+00  0.00000000E+00  0.00000000E+00
  0.00000000E+00  0.00000000E+00  0.00000000E+00
  0.00000000E+00  0.00000000E+00  0.00000000E+00
  0.00000000E+00  0.00000000E+00  0.00000000E+00
  0.00000000E+00  0.00000000E+00  0.00000000E+00
  0.00000000E+00  0.00000000E+00  0.00000000E+00
  0.00000000E+00  0.00000000E+00  0.00000000E+00
  0.00000000E+00  0.00000000E+00  0.00000000E+00
  0.00000000E+00  0.00000000E+00  0.00000000E+00
  0.00000000E+00  0.00000000E+00  0.00000000E+00
  0.00000000E+00  0.00000000E+00  0.00000000E+00
  0.00000000E+00  0.00000000E+00  0.00000000E+00
  0.00000000E+00  0.00000000E+00  0.00000000E+00
  0.00000000E+00  0.00000000E+00  0.00000000E+00
  0.00000000E+00  0.00000000E+00  0.00000000E+00
