Mg32 O31                                
   1.00000000000000     
     8.4194560000000003    0.0000000000000000    0.0000000000000000
     0.0000000000000000    8.4194560000000003    0.0000000000000000
     0.0000000000000000    0.0000000000000000    8.4194560000000003
   Mg   O 
    32    31
Direct
  0.9888372169362540  0.0000000000000000  0.0000000000000000
  0.9985488982546258  0.0000000000000000  0.5000000000000000
  0.9985488982546258  0.5000000000000000  0.0000000000000000
  0.9993741246508776  0.5000000000000000  0.5000000000000000
  0.5111627830637460  0.0000000000000000  0.0000000000000000
  0.5014511017453742  0.0000000000000000  0.5000000000000000
  0.5014511017453742  0.5000000000000000  0.0000000000000000
  0.5006258753491224  0.5000000000000000  0.5000000000000000
  0.9999731443617748  0.2500268556382252  0.2500268556382252
  0.9999731443617748  0.2500268556382252  0.7499731443617748
  0.9999731443617748  0.7499731443617748  0.2500268556382252
  0.9999731443617748  0.7499731443617748  0.7499731443617748
  0.5000268556382252  0.2500268556382252  0.2500268556382252
  0.5000268556382252  0.2500268556382252  0.7499731443617748
  0.5000268556382252  0.7499731443617748  0.2500268556382252
  0.5000268556382252  0.7499731443617748  0.7499731443617748
  0.2500000000000000  0.0000000000000000  0.2611627830637460
  0.2500000000000000  0.0000000000000000  0.7388372169362540
  0.2500000000000000  0.5000000000000000  0.2514511017453742
  0.2500000000000000  0.5000000000000000  0.7485488982546258
  0.7500000000000000  0.0000000000000000  0.2514511017453742
  0.7500000000000000  0.0000000000000000  0.7485488982546258
  0.7500000000000000  0.5000000000000000  0.2506258753491224
  0.7500000000000000  0.5000000000000000  0.7493741246508776
  0.2500000000000000  0.2611627830637460  0.0000000000000000
  0.2500000000000000  0.2514511017453742  0.5000000000000000
  0.2500000000000000  0.7388372169362540  0.0000000000000000
  0.2500000000000000  0.7485488982546258  0.5000000000000000
  0.7500000000000000  0.2514511017453742  0.0000000000000000
  0.7500000000000000  0.2506258753491224  0.5000000000000000
  0.7500000000000000  0.7485488982546258  0.0000000000000000
  0.7500000000000000  0.7493741246508776  0.5000000000000000
  0.2500000000000000  0.0000000000000000  0.5000000000000000
  0.2500000000000000  0.5000000000000000  0.0000000000000000
  0.2500000000000000  0.5000000000000000  0.5000000000000000
  0.7500000000000000  0.0000000000000000  0.0000000000000000
  0.7500000000000000  0.0000000000000000  0.5000000000000000
  0.7500000000000000  0.5000000000000000  0.0000000000000000
  0.7500000000000000  0.5000000000000000  0.5000000000000000
  0.2500000000000000  0.2475598692918766  0.2475598692918766
  0.2500000000000000  0.2475598692918766  0.7524401307081234
  0.2500000000000000  0.7524401307081234  0.2475598692918766
  0.2500000000000000  0.7524401307081234  0.7524401307081234
  0.7500000000000000  0.2492359083076607  0.2492359083076607
  0.7500000000000000  0.2492359083076607  0.7507640916923393
  0.7500000000000000  0.7507640916923393  0.2492359083076607
  0.7500000000000000  0.7507640916923393  0.7507640916923393
  0.0024401307081234  0.0000000000000000  0.2475598692918766
  0.0024401307081234  0.0000000000000000  0.7524401307081234
  0.0007640916923393  0.5000000000000000  0.2492359083076607
  0.0007640916923393  0.5000000000000000  0.7507640916923393
  0.4975598692918766  0.0000000000000000  0.2475598692918766
  0.4975598692918766  0.0000000000000000  0.7524401307081234
  0.4992359083076607  0.5000000000000000  0.2492359083076607
  0.4992359083076607  0.5000000000000000  0.7507640916923393
  0.0024401307081234  0.2475598692918766  0.0000000000000000
  0.0007640916923393  0.2492359083076607  0.5000000000000000
  0.0024401307081234  0.7524401307081234  0.0000000000000000
  0.0007640916923393  0.7507640916923393  0.5000000000000000
  0.4975598692918766  0.2475598692918766  0.0000000000000000
  0.4992359083076607  0.2492359083076607  0.5000000000000000
  0.4975598692918766  0.7524401307081234  0.0000000000000000
  0.4992359083076607  0.7507640916923393  0.5000000000000000
 
  0.00000000E+00  0.00000000E+00  0.00000000E+00
  0.00000000E+00  0.00000000E+00  0.00000000E+00
  0.00000000E+00  0.00000000E+00  0.00000000E+00
  0.00000000E+00  0.00000000E+00  0.00000000E+00
  0.00000000E+00  0.00000000E+00  0.00000000E+00
  0.00000000E+00  0.00000000E+00  0.00000000E+00
  0.00000000E+00  0.00000000E+00  0.00000000E+00
  0.00000000E+00  0.00000000E+00  0.00000000E+00
  0.00000000E+00  0.00000000E+00  0.00000000E+00
  0.00000000E+00  0.00000000E+00  0.00000000E+00
  0.00000000E+00  0.00000000E+00  0.00000000E+00
  0.00000000E+00  0.00000000E+00  0.00000000E+00
  0.00000000E+00  0.00000000E+00  0.00000000E+00
  0.00000000E+00  0.00000000E+00  0.00000000E+00
  0.00000000E+00  0.00000000E+00  0.00000000E+00
  0.00000000E+00  0.00000000E+00  0.00000000E+00
  0.00000000E+00  0.00000000E+00  0.00000000E+00
  0.00000000E+00  0.00000000E+00  0.00000000E+00
  0.00000000E+00  0.00000000E+00  0.00000000E+00
  0.00000000E+00  0.00000000E+00  0.00000000E+00
  0.00000000E+00  0.00000000E+00  0.00000000E+00
  0.00000000E+00  0.00000000E+00  0.00000000E+00
  0.00000000E+00  0.00000000E+00  0.00000000E+00
  0.00000000E+00  0.00000000E+00  0.00000000E+00
  0.00000000E+00  0.00000000E+00  0.00000000E+00
  0.00000000E+00  0.00000000E+00  0.00000000E+00
  0.00000000E+00  0.00000000E+00  0.00000000E+00
  0.00000000E+00  0.00000000E+00  0.00000000E+00
  0.00000000E+00  0.00000000E+00  0.00000000E+00
  0.00000000E+00  0.00000000E+00  0.00000000E+00
  0.00000000E+00  0.00000000E+00  0.00000000E+00
  0.00000000E+00  0.00000000E+00  0.00000000E+00
  0.00000000E+00  0.00000000E+00  0.00000000E+00
  0.00000000E+00  0.00000000E+00  0.00000000E+00
  0.00000000E+00  0.00000000E+00  0.00000000E+00
  0.00000000E+00  0.00000000E+00  0.00000000E+00
  0.00000000E+00  0.00000000E+00  0.00000000E+00
  0.00000000E+00  0.00000000E+00  0.00000000E+00
  0.00000000E+00  0.00000000E+00  0.00000000E+00
  0.00000000E+00  0.00000000E+00  0.00000000E+00
  0.00000000E+00  0.00000000E+00  0.00000000E+00
  0.00000000E+00  0.00000000E+00  0.00000000E+00
  0.00000000E+00  0.00000000E+00  0.00000000E+00
  0.00000000E+00  0.00000000E+00  0.00000000E+00
  0.00000000E+00  0.00000000E+00  0.00000000E+00
  0.00000000E+00  0.00000000E+00  0.00000000E+00
  0.00000000E+00  0.00000000E+00  0.00000000E+00
  0.00000000E+00  0.00000000E+00  0.00000000E+00
  0.00000000E+00  0.00000000E+00  0.00000000E+00
  0.00000000E+00  0.00000000E+00  0.00000000E+00
  0.00000000E+00  0.00000000E+00  0.00000000E+00
  0.00000000E+00  0.00000000E+00  0.00000000E+00
  0.00000000E+00  0.00000000E+00  0.00000000E+00
  0.00000000E+00  0.00000000E+00  0.00000000E+00
  0.00000000E+00  0.00000000E+00  0.00000000E+00
  0.00000000E+00  0.00000000E+00  0.00000000E+00
  0.00000000E+00  0.00000000E+00  0.00000000E+00
  0.00000000E+00  0.00000000E+00  0.00000000E+00
  0.00000000E+00  0.00000000E+00  0.00000000E+00
  0.00000000E+00  0.00000000E+00  0.00000000E+00
  0.00000000E+00  0.00000000E+00  0.00000000E+00
  0.00000000E+00  0.00000000E+00  0.00000000E+00
  0.00000000E+00  0.00000000E+00  0.00000000E+00
