Mg32 O33                                
   1.00000000000000     
     8.4194560000000003    0.0000000000000000    0.0000000000000000
     0.0000000000000000    8.4194560000000003    0.0000000000000000
     0.0000000000000000    0.0000000000000000    8.4194560000000003
   Mg   O 
    32    33
Direct
  0.9929607785678982  0.9929607785678982  0.9929607785678982
  0.9978147682323595  0.9978147682323595  0.5050427210185120
  0.9978147682323595  0.5050427210185120  0.9978147682323595
  0.9999941333944449  0.5014057353739858  0.5014057353739858
  0.5050427210185120  0.9978147682323595  0.9978147682323595
  0.5014057353739858  0.9999941333944449  0.5014057353739858
  0.5014057353739858  0.5014057353739858  0.9999941333944449
  0.5001744720060728  0.5001744720060728  0.5001744720060728
  0.9929607785678982  0.2570392214321018  0.2570392214321018
  0.9978147682323595  0.2521852317676405  0.7449572789814880
  0.9978147682323595  0.7449572789814880  0.2521852317676405
  0.9999941333944449  0.7485942646260142  0.7485942646260142
  0.5050427210185120  0.2521852317676405  0.2521852317676405
  0.5014057353739858  0.2500058666055551  0.7485942646260142
  0.5014057353739858  0.7485942646260142  0.2500058666055551
  0.5001744720060728  0.7498255279939272  0.7498255279939272
  0.2570392214321018  0.9929607785678982  0.2570392214321018
  0.2521852317676405  0.9978147682323595  0.7449572789814880
  0.2521852317676405  0.5050427210185120  0.2521852317676405
  0.2500058666055551  0.5014057353739858  0.7485942646260142
  0.7449572789814880  0.9978147682323595  0.2521852317676405
  0.7485942646260142  0.9999941333944449  0.7485942646260142
  0.7485942646260142  0.5014057353739858  0.2500058666055551
  0.7498255279939272  0.5001744720060728  0.7498255279939272
  0.2570392214321018  0.2570392214321018  0.9929607785678982
  0.2521852317676405  0.2521852317676405  0.5050427210185120
  0.2521852317676405  0.7449572789814880  0.9978147682323595
  0.2500058666055551  0.7485942646260142  0.5014057353739858
  0.7449572789814880  0.2521852317676405  0.9978147682323595
  0.7485942646260142  0.2500058666055551  0.5014057353739858
  0.7485942646260142  0.7485942646260142  0.9999941333944449
  0.7498255279939272  0.7498255279939272  0.5001744720060728
  0.1250000000000000  0.1250000000000000  0.1250000000000000
  0.2722008836729088  0.9777991163270912  0.9777991163270912
  0.2502427871321373  0.9997572128678627  0.5003055322510832
  0.2502427871321373  0.5003055322510832  0.9997572128678627
  0.2501037184912533  0.5028536218828634  0.5028536218828634
  0.7496944677489168  0.9997572128678627  0.9997572128678627
  0.7471463781171366  0.9998962815087467  0.5028536218828634
  0.7471463781171366  0.5028536218828634  0.9998962815087467
  0.7502042105951574  0.4997957894048426  0.4997957894048426
  0.2722008836729088  0.2722008836729088  0.2722008836729088
  0.2502427871321373  0.2502427871321373  0.7496944677489168
  0.2502427871321373  0.7496944677489168  0.2502427871321373
  0.2501037184912533  0.7471463781171366  0.7471463781171366
  0.7496944677489168  0.2502427871321373  0.2502427871321373
  0.7471463781171366  0.2501037184912533  0.7471463781171366
  0.7471463781171366  0.7471463781171366  0.2501037184912533
  0.7502042105951574  0.7502042105951574  0.7502042105951574
  0.9777991163270912  0.9777991163270912  0.2722008836729088
  0.9997572128678627  0.9997572128678627  0.7496944677489168
  0.9997572128678627  0.5003055322510832  0.2502427871321373
  0.9998962815087467  0.5028536218828634  0.7471463781171366
  0.5003055322510832  0.9997572128678627  0.2502427871321373
  0.5028536218828634  0.9998962815087467  0.7471463781171366
  0.5028536218828634  0.5028536218828634  0.2501037184912533
  0.4997957894048426  0.4997957894048426  0.7502042105951574
  0.9777991163270912  0.2722008836729088  0.9777991163270912
  0.9997572128678627  0.2502427871321373  0.5003055322510832
  0.9997572128678627  0.7496944677489168  0.9997572128678627
  0.9998962815087467  0.7471463781171366  0.5028536218828634
  0.5003055322510832  0.2502427871321373  0.9997572128678627
  0.5028536218828634  0.2501037184912533  0.5028536218828634
  0.5028536218828634  0.7471463781171366  0.9998962815087467
  0.4997957894048426  0.7502042105951574  0.4997957894048426
 
  0.00000000E+00  0.00000000E+00  0.00000000E+00
  0.00000000E+00  0.00000000E+00  0.00000000E+00
  0.00000000E+00  0.00000000E+00  0.00000000E+00
  0.00000000E+00  0.00000000E+00  0.00000000E+00
  0.00000000E+00  0.00000000E+00  0.00000000E+00
  0.00000000E+00  0.00000000E+00  0.00000000E+00
  0.00000000E+00  0.00000000E+00  0.00000000E+00
  0.00000000E+00  0.00000000E+00  0.00000000E+00
  0.00000000E+00  0.00000000E+00  0.00000000E+00
  0.00000000E+00  0.00000000E+00  0.00000000E+00
  0.00000000E+00  0.00000000E+00  0.00000000E+00
  0.00000000E+00  0.00000000E+00  0.00000000E+00
  0.00000000E+00  0.00000000E+00  0.00000000E+00
  0.00000000E+00  0.00000000E+00  0.00000000E+00
  0.00000000E+00  0.00000000E+00  0.00000000E+00
  0.00000000E+00  0.00000000E+00  0.00000000E+00
  0.00000000E+00  0.00000000E+00  0.00000000E+00
  0.00000000E+00  0.00000000E+00  0.00000000E+00
  0.00000000E+00  0.00000000E+00  0.00000000E+00
  0.00000000E+00  0.00000000E+00  0.00000000E+00
  0.00000000E+00  0.00000000E+00  0.00000000E+00
  0.00000000E+00  0.00000000E+00  0.00000000E+00
  0.00000000E+00  0.00000000E+00  0.00000000E+00
  0.00000000E+00  0.00000000E+00  0.00000000E+00
  0.00000000E+00  0.00000000E+00  0.00000000E+00
  0.00000000E+00  0.00000000E+00  0.00000000E+00
  0.00000000E+00  0.00000000E+00  0.00000000E+00
  0.00000000E+00  0.00000000E+00  0.00000000E+00
  0.00000000E+00  0.00000000E+00  0.00000000E+00
  0.00000000E+00  0.00000000E+00  0.00000000E+00
  0.00000000E+00  0.00000000E+00  0.00000000E+00
  0.00000000E+00  0.00000000E+00  0.00000000E+00
  0.00000000E+00  0.00000000E+00  0.00000000E+00
  0.00000000E+00  0.00000000E+00  0.00000000E+00
  0.00000000E+00  0.00000000E+00  0.00000000E+00
  0.00000000E+00  0.00000000E+00  0.00000000E+00
  0.00000000E+00  0.00000000E+00  0.00000000E+00
  0.00000000E+00  0.00000000E+00  0.00000000E+00
  0.00000000E+00  0.00000000E+00  0.00000000E+00
  0.00000000E+00  0.00000000E+00  0.00000000E+00
  0.00000000E+00  0.00000000E+00  0.00000000E+00
  0.00000000E+00  0.00000000E+00  0.00000000E+00
  0.00000000E+00  0.00000000E+00  0.00000000E+00
  0.00000000E+00  0.00000000E+00  0.00000000E+00
  0.00000000E+00  0.00000000E+00  0.00000000E+00
  0.00000000E+00  0.00000000E+00  0.00000000E+00
  0.00000000E+00  0.00000000E+00  0.00000000E+00
  0.00000000E+00  0.00000000E+00  0.00000000E+00
  0.00000000E+00  0.00000000E+00  0.00000000E+00
  0.00000000E+00  0.00000000E+00  0.00000000E+00
  0.00000000E+00  0.00000000E+00  0.00000000E+00
  0.00000000E+00  0.00000000E+00  0.00000000E+00
  0.00000000E+00  0.00000000E+00  0.00000000E+00
  0.00000000E+00  0.00000000E+00  0.00000000E+00
  0.00000000E+00  0.00000000E+00  0.00000000E+00
  0.00000000E+00  0.00000000E+00  0.00000000E+00
  0.00000000E+00  0.00000000E+00  0.00000000E+00
  0.00000000E+00  0.00000000E+00  0.00000000E+00
  0.00000000E+00  0.00000000E+00  0.00000000E+00
  0.00000000E+00  0.00000000E+00  0.00000000E+00
  0.00000000E+00  0.00000000E+00  0.00000000E+00
  0.00000000E+00  0.00000000E+00  0.00000000E+00
  0.00000000E+00  0.00000000E+00  0.00000000E+00
  0.00000000E+00  0.00000000E+00  0.00000000E+00
  0.00000000E+00  0.00000000E+00  0.00000000E+00
