Mg32 O31                                
   1.00000000000000     
     8.4194560000000003    0.0000000000000000    0.0000000000000000
     0.0000000000000000    8.4194560000000003    0.0000000000000000
     0.0000000000000000    0.0000000000000000    8.4194560000000003
   Mg   O 
    32    31
Direct
  0.9983386630302462  0.0000000000000000  0.0000000000000000
  0.9995962318954668  0.0000000000000000  0.5000000000000000
  0.9995962318954668  0.5000000000000000  0.0000000000000000
  0.0000578068118458  0.5000000000000000  0.5000000000000000
  0.5016613369697538  0.0000000000000000  0.0000000000000000
  0.5004037681045332  0.0000000000000000  0.5000000000000000
  0.5004037681045332  0.5000000000000000  0.0000000000000000
  0.4999421931881542  0.5000000000000000  0.5000000000000000
  0.0000374398142995  0.2499625601857005  0.2499625601857005
  0.0000374398142995  0.2499625601857005  0.7500374398142995
  0.0000374398142995  0.7500374398142995  0.2499625601857005
  0.0000374398142995  0.7500374398142995  0.7500374398142995
  0.4999625601857005  0.2499625601857005  0.2499625601857005
  0.4999625601857005  0.2499625601857005  0.7500374398142995
  0.4999625601857005  0.7500374398142995  0.2499625601857005
  0.4999625601857005  0.7500374398142995  0.7500374398142995
  0.2500000000000000  0.0000000000000000  0.2516613369697538
  0.2500000000000000  0.0000000000000000  0.7483386630302462
  0.2500000000000000  0.5000000000000000  0.2504037681045332
  0.2500000000000000  0.5000000000000000  0.7495962318954668
  0.7500000000000000  0.0000000000000000  0.2504037681045332
  0.7500000000000000  0.0000000000000000  0.7495962318954668
  0.7500000000000000  0.5000000000000000  0.2499421931881542
  0.7500000000000000  0.5000000000000000  0.7500578068118458
  0.2500000000000000  0.2516613369697538  0.0000000000000000
  0.2500000000000000  0.2504037681045332  0.5000000000000000
  0.2500000000000000  0.7483386630302462  0.0000000000000000
  0.2500000000000000  0.7495962318954668  0.5000000000000000
  0.7500000000000000  0.2504037681045332  0.0000000000000000
  0.7500000000000000  0.2499421931881542  0.5000000000000000
  0.7500000000000000  0.7495962318954668  0.0000000000000000
  0.7500000000000000  0.7500578068118458  0.5000000000000000
  0.2500000000000000  0.0000000000000000  0.5000000000000000
  0.2500000000000000  0.5000000000000000  0.0000000000000000
  0.2500000000000000  0.5000000000000000  0.5000000000000000
  0.7500000000000000  0.0000000000000000  0.0000000000000000
  0.7500000000000000  0.0000000000000000  0.5000000000000000
  0.7500000000000000  0.5000000000000000  0.0000000000000000
  0.7500000000000000  0.5000000000000000  0.5000000000000000
  0.2500000000000000  0.2506864829642765  0.2506864829642765
  0.2500000000000000  0.2506864829642765  0.7493135170357235
  0.2500000000000000  0.7493135170357235  0.2506864829642765
  0.2500000000000000  0.7493135170357235  0.7493135170357235
  0.7500000000000000  0.2499238156325134  0.2499238156325134
  0.7500000000000000  0.2499238156325134  0.7500761843674866
  0.7500000000000000  0.7500761843674866  0.2499238156325134
  0.7500000000000000  0.7500761843674866  0.7500761843674866
  0.9993135170357235  0.0000000000000000  0.2506864829642765
  0.9993135170357235  0.0000000000000000  0.7493135170357235
  0.0000761843674866  0.5000000000000000  0.2499238156325134
  0.0000761843674866  0.5000000000000000  0.7500761843674866
  0.5006864829642765  0.0000000000000000  0.2506864829642765
  0.5006864829642765  0.0000000000000000  0.7493135170357235
  0.4999238156325134  0.5000000000000000  0.2499238156325134
  0.4999238156325134  0.5000000000000000  0.7500761843674866
  0.9993135170357235  0.2506864829642765  0.0000000000000000
  0.0000761843674866  0.2499238156325134  0.5000000000000000
  0.9993135170357235  0.7493135170357235  0.0000000000000000
  0.0000761843674866  0.7500761843674866  0.5000000000000000
  0.5006864829642765  0.2506864829642765  0.0000000000000000
  0.4999238156325134  0.2499238156325134  0.5000000000000000
  0.5006864829642765  0.7493135170357235  0.0000000000000000
  0.4999238156325134  0.7500761843674866  0.5000000000000000
 
  0.00000000E+00  0.00000000E+00  0.00000000E+00
  0.00000000E+00  0.00000000E+00  0.00000000E+00
  0.00000000E+00  0.00000000E+00  0.00000000E+00
  0.00000000E+00  0.00000000E+00  0.00000000E+00
  0.00000000E+00  0.00000000E+00  0.00000000E+00
  0.00000000E+00  0.00000000E+00  0.00000000E+00
  0.00000000E+00  0.00000000E+00  0.00000000E+00
  0.00000000E+00  0.00000000E+00  0.00000000E+00
  0.00000000E+00  0.00000000E+00  0.00000000E+00
  0.00000000E+00  0.00000000E+00  0.00000000E+00
  0.00000000E+00  0.00000000E+00  0.00000000E+00
  0.00000000E+00  0.00000000E+00  0.00000000E+00
  0.00000000E+00  0.00000000E+00  0.00000000E+00
  0.00000000E+00  0.00000000E+00  0.00000000E+00
  0.00000000E+00  0.00000000E+00  0.00000000E+00
  0.00000000E+00  0.00000000E+00  0.00000000E+00
  0.00000000E+00  0.00000000E+00  0.00000000E+00
  0.00000000E+00  0.00000000E+00  0.00000000E+00
  0.00000000E+00  0.00000000E+00  0.00000000E+00
  0.00000000E+00  0.00000000E+00  0.00000000E+00
  0.00000000E+00  0.00000000E+00  0.00000000E+00
  0.00000000E+00  0.00000000E+00  0.00000000E+00
  0.00000000E+00  0.00000000E+00  0.00000000E+00
  0.00000000E+00  0.00000000E+00  0.00000000E+00
  0.00000000E+00  0.00000000E+00  0.00000000E+00
  0.00000000E+00  0.00000000E+00  0.00000000E+00
  0.00000000E+00  0.00000000E+00  0.00000000E+00
  0.00000000E+00  0.00000000E+00  0.00000000E+00
  0.00000000E+00  0.00000000E+00  0.00000000E+00
  0.00000000E+00  0.00000000E+00  0.00000000E+00
  0.00000000E+00  0.00000000E+00  0.00000000E+00
  0.00000000E+00  0.00000000E+00  0.00000000E+00
  0.00000000E+00  0.00000000E+00  0.00000000E+00
  0.00000000E+00  0.00000000E+00  0.00000000E+00
  0.00000000E+00  0.00000000E+00  0.00000000E+00
  0.00000000E+00  0.00000000E+00  0.00000000E+00
  0.00000000E+00  0.00000000E+00  0.00000000E+00
  0.00000000E+00  0.00000000E+00  0.00000000E+00
  0.00000000E+00  0.00000000E+00  0.00000000E+00
  0.00000000E+00  0.00000000E+00  0.00000000E+00
  0.00000000E+00  0.00000000E+00  0.00000000E+00
  0.00000000E+00  0.00000000E+00  0.00000000E+00
  0.00000000E+00  0.00000000E+00  0.00000000E+00
  0.00000000E+00  0.00000000E+00  0.00000000E+00
  0.00000000E+00  0.00000000E+00  0.00000000E+00
  0.00000000E+00  0.00000000E+00  0.00000000E+00
  0.00000000E+00  0.00000000E+00  0.00000000E+00
  0.00000000E+00  0.00000000E+00  0.00000000E+00
  0.00000000E+00  0.00000000E+00  0.00000000E+00
  0.00000000E+00  0.00000000E+00  0.00000000E+00
  0.00000000E+00  0.00000000E+00  0.00000000E+00
  0.00000000E+00  0.00000000E+00  0.00000000E+00
  0.00000000E+00  0.00000000E+00  0.00000000E+00
  0.00000000E+00  0.00000000E+00  0.00000000E+00
  0.00000000E+00  0.00000000E+00  0.00000000E+00
  0.00000000E+00  0.00000000E+00  0.00000000E+00
  0.00000000E+00  0.00000000E+00  0.00000000E+00
  0.00000000E+00  0.00000000E+00  0.00000000E+00
  0.00000000E+00  0.00000000E+00  0.00000000E+00
  0.00000000E+00  0.00000000E+00  0.00000000E+00
  0.00000000E+00  0.00000000E+00  0.00000000E+00
  0.00000000E+00  0.00000000E+00  0.00000000E+00
  0.00000000E+00  0.00000000E+00  0.00000000E+00
