Mg32 O31                                
   1.00000000000000     
     8.4194560000000003    0.0000000000000000    0.0000000000000000
     0.0000000000000000    8.4194560000000003    0.0000000000000000
     0.0000000000000000    0.0000000000000000    8.4194560000000003
   Mg   O 
    32    31
Direct
  0.9983386630158364  0.0000000000000000  0.0000000000000000
  0.9995962318882476  0.0000000000000000  0.5000000000000000
  0.9995962318882476  0.5000000000000000  0.0000000000000000
  0.0000578068121158  0.5000000000000000  0.5000000000000000
  0.5016613369841636  0.0000000000000000  0.0000000000000000
  0.5004037681117524  0.0000000000000000  0.5000000000000000
  0.5004037681117524  0.5000000000000000  0.0000000000000000
  0.4999421931878842  0.5000000000000000  0.5000000000000000
  0.0000374398125231  0.2499625601874769  0.2499625601874769
  0.0000374398125231  0.2499625601874769  0.7500374398125231
  0.0000374398125231  0.7500374398125231  0.2499625601874769
  0.0000374398125231  0.7500374398125231  0.7500374398125231
  0.4999625601874769  0.2499625601874769  0.2499625601874769
  0.4999625601874769  0.2499625601874769  0.7500374398125231
  0.4999625601874769  0.7500374398125231  0.2499625601874769
  0.4999625601874769  0.7500374398125231  0.7500374398125231
  0.2500000000000000  0.0000000000000000  0.2516613369841636
  0.2500000000000000  0.0000000000000000  0.7483386630158364
  0.2500000000000000  0.5000000000000000  0.2504037681117524
  0.2500000000000000  0.5000000000000000  0.7495962318882476
  0.7500000000000000  0.0000000000000000  0.2504037681117524
  0.7500000000000000  0.0000000000000000  0.7495962318882476
  0.7500000000000000  0.5000000000000000  0.2499421931878842
  0.7500000000000000  0.5000000000000000  0.7500578068121158
  0.2500000000000000  0.2516613369841636  0.0000000000000000
  0.2500000000000000  0.2504037681117524  0.5000000000000000
  0.2500000000000000  0.7483386630158364  0.0000000000000000
  0.2500000000000000  0.7495962318882476  0.5000000000000000
  0.7500000000000000  0.2504037681117524  0.0000000000000000
  0.7500000000000000  0.2499421931878842  0.5000000000000000
  0.7500000000000000  0.7495962318882476  0.0000000000000000
  0.7500000000000000  0.7500578068121158  0.5000000000000000
  0.2500000000000000  0.0000000000000000  0.5000000000000000
  0.2500000000000000  0.5000000000000000  0.0000000000000000
  0.2500000000000000  0.5000000000000000  0.5000000000000000
  0.7500000000000000  0.0000000000000000  0.0000000000000000
  0.7500000000000000  0.0000000000000000  0.5000000000000000
  0.7500000000000000  0.5000000000000000  0.0000000000000000
  0.7500000000000000  0.5000000000000000  0.5000000000000000
  0.2500000000000000  0.2506864829760573  0.2506864829760573
  0.2500000000000000  0.2506864829760573  0.7493135170239427
  0.2500000000000000  0.7493135170239427  0.2506864829760573
  0.2500000000000000  0.7493135170239427  0.7493135170239427
  0.7500000000000000  0.2499238156262038  0.2499238156262038
  0.7500000000000000  0.2499238156262038  0.7500761843737962
  0.7500000000000000  0.7500761843737962  0.2499238156262038
  0.7500000000000000  0.7500761843737962  0.7500761843737962
  0.9993135170239427  0.0000000000000000  0.2506864829760573
  0.9993135170239427  0.0000000000000000  0.7493135170239427
  0.0000761843737962  0.5000000000000000  0.2499238156262038
  0.0000761843737962  0.5000000000000000  0.7500761843737962
  0.5006864829760573  0.0000000000000000  0.2506864829760573
  0.5006864829760573  0.0000000000000000  0.7493135170239427
  0.4999238156262038  0.5000000000000000  0.2499238156262038
  0.4999238156262038  0.5000000000000000  0.7500761843737962
  0.9993135170239427  0.2506864829760573  0.0000000000000000
  0.0000761843737962  0.2499238156262038  0.5000000000000000
  0.9993135170239427  0.7493135170239427  0.0000000000000000
  0.0000761843737962  0.7500761843737962  0.5000000000000000
  0.5006864829760573  0.2506864829760573  0.0000000000000000
  0.4999238156262038  0.2499238156262038  0.5000000000000000
  0.5006864829760573  0.7493135170239427  0.0000000000000000
  0.4999238156262038  0.7500761843737962  0.5000000000000000
 
  0.00000000E+00  0.00000000E+00  0.00000000E+00
  0.00000000E+00  0.00000000E+00  0.00000000E+00
  0.00000000E+00  0.00000000E+00  0.00000000E+00
  0.00000000E+00  0.00000000E+00  0.00000000E+00
  0.00000000E+00  0.00000000E+00  0.00000000E+00
  0.00000000E+00  0.00000000E+00  0.00000000E+00
  0.00000000E+00  0.00000000E+00  0.00000000E+00
  0.00000000E+00  0.00000000E+00  0.00000000E+00
  0.00000000E+00  0.00000000E+00  0.00000000E+00
  0.00000000E+00  0.00000000E+00  0.00000000E+00
  0.00000000E+00  0.00000000E+00  0.00000000E+00
  0.00000000E+00  0.00000000E+00  0.00000000E+00
  0.00000000E+00  0.00000000E+00  0.00000000E+00
  0.00000000E+00  0.00000000E+00  0.00000000E+00
  0.00000000E+00  0.00000000E+00  0.00000000E+00
  0.00000000E+00  0.00000000E+00  0.00000000E+00
  0.00000000E+00  0.00000000E+00  0.00000000E+00
  0.00000000E+00  0.00000000E+00  0.00000000E+00
  0.00000000E+00  0.00000000E+00  0.00000000E+00
  0.00000000E+00  0.00000000E+00  0.00000000E+00
  0.00000000E+00  0.00000000E+00  0.00000000E+00
  0.00000000E+00  0.00000000E+00  0.00000000E+00
  0.00000000E+00  0.00000000E+00  0.00000000E+00
  0.00000000E+00  0.00000000E+00  0.00000000E+00
  0.00000000E+00  0.00000000E+00  0.00000000E+00
  0.00000000E+00  0.00000000E+00  0.00000000E+00
  0.00000000E+00  0.00000000E+00  0.00000000E+00
  0.00000000E+00  0.00000000E+00  0.00000000E+00
  0.00000000E+00  0.00000000E+00  0.00000000E+00
  0.00000000E+00  0.00000000E+00  0.00000000E+00
  0.00000000E+00  0.00000000E+00  0.00000000E+00
  0.00000000E+00  0.00000000E+00  0.00000000E+00
  0.00000000E+00  0.00000000E+00  0.00000000E+00
  0.00000000E+00  0.00000000E+00  0.00000000E+00
  0.00000000E+00  0.00000000E+00  0.00000000E+00
  0.00000000E+00  0.00000000E+00  0.00000000E+00
  0.00000000E+00  0.00000000E+00  0.00000000E+00
  0.00000000E+00  0.00000000E+00  0.00000000E+00
  0.00000000E+00  0.00000000E+00  0.00000000E+00
  0.00000000E+00  0.00000000E+00  0.00000000E+00
  0.00000000E+00  0.00000000E+00  0.00000000E+00
  0.00000000E+00  0.00000000E+00  0.00000000E+00
  0.00000000E+00  0.00000000E+00  0.00000000E+00
  0.00000000E+00  0.00000000E+00  0.00000000E+00
  0.00000000E+00  0.00000000E+00  0.00000000E+00
  0.00000000E+00  0.00000000E+00  0.00000000E+00
  0.00000000E+00  0.00000000E+00  0.00000000E+00
  0.00000000E+00  0.00000000E+00  0.00000000E+00
  0.00000000E+00  0.00000000E+00  0.00000000E+00
  0.00000000E+00  0.00000000E+00  0.00000000E+00
  0.00000000E+00  0.00000000E+00  0.00000000E+00
  0.00000000E+00  0.00000000E+00  0.00000000E+00
  0.00000000E+00  0.00000000E+00  0.00000000E+00
  0.00000000E+00  0.00000000E+00  0.00000000E+00
  0.00000000E+00  0.00000000E+00  0.00000000E+00
  0.00000000E+00  0.00000000E+00  0.00000000E+00
  0.00000000E+00  0.00000000E+00  0.00000000E+00
  0.00000000E+00  0.00000000E+00  0.00000000E+00
  0.00000000E+00  0.00000000E+00  0.00000000E+00
  0.00000000E+00  0.00000000E+00  0.00000000E+00
  0.00000000E+00  0.00000000E+00  0.00000000E+00
  0.00000000E+00  0.00000000E+00  0.00000000E+00
  0.00000000E+00  0.00000000E+00  0.00000000E+00
