Mg32 O31                                
   1.00000000000000     
     8.4194560000000003    0.0000000000000000    0.0000000000000000
     0.0000000000000000    8.4194560000000003    0.0000000000000000
     0.0000000000000000    0.0000000000000000    8.4194560000000003
   Mg   O 
    32    31
Direct
  0.9995962318584262  0.0000000000000000  0.0000000000000000
  0.9983386632362397  0.0000000000000000  0.5000000000000000
  0.0000578074509505  0.5000000000000000  0.0000000000000000
  0.9995962318584262  0.5000000000000000  0.5000000000000000
  0.5004037681415738  0.0000000000000000  0.0000000000000000
  0.5016613367637603  0.0000000000000000  0.5000000000000000
  0.4999421925490495  0.5000000000000000  0.0000000000000000
  0.5004037681415738  0.5000000000000000  0.5000000000000000
  0.0000374397332052  0.2499625602667948  0.2500374397332052
  0.0000374397332052  0.2499625602667948  0.7499625602667948
  0.0000374397332052  0.7500374397332052  0.2500374397332052
  0.0000374397332052  0.7500374397332052  0.7499625602667948
  0.4999625602667948  0.2499625602667948  0.2500374397332052
  0.4999625602667948  0.2499625602667948  0.7499625602667948
  0.4999625602667948  0.7500374397332052  0.2500374397332052
  0.4999625602667948  0.7500374397332052  0.7499625602667948
  0.2500000000000000  0.0000000000000000  0.2483386632362397
  0.2500000000000000  0.0000000000000000  0.7516613367637603
  0.2500000000000000  0.5000000000000000  0.2495962318584262
  0.2500000000000000  0.5000000000000000  0.7504037681415738
  0.7500000000000000  0.0000000000000000  0.2495962318584262
  0.7500000000000000  0.0000000000000000  0.7504037681415738
  0.7500000000000000  0.5000000000000000  0.2500578074509505
  0.7500000000000000  0.5000000000000000  0.7499421925490495
  0.2500000000000000  0.2504037681415738  0.0000000000000000
  0.2500000000000000  0.2516613367637603  0.5000000000000000
  0.2500000000000000  0.7495962318584262  0.0000000000000000
  0.2500000000000000  0.7483386632362397  0.5000000000000000
  0.7500000000000000  0.2499421925490495  0.0000000000000000
  0.7500000000000000  0.2504037681415738  0.5000000000000000
  0.7500000000000000  0.7500578074509505  0.0000000000000000
  0.7500000000000000  0.7495962318584262  0.5000000000000000
  0.2500000000000000  0.0000000000000000  0.0000000000000000
  0.2500000000000000  0.5000000000000000  0.0000000000000000
  0.2500000000000000  0.5000000000000000  0.5000000000000000
  0.7500000000000000  0.0000000000000000  0.0000000000000000
  0.7500000000000000  0.0000000000000000  0.5000000000000000
  0.7500000000000000  0.5000000000000000  0.0000000000000000
  0.7500000000000000  0.5000000000000000  0.5000000000000000
  0.2500000000000000  0.2506864831290798  0.2493135168709202
  0.2500000000000000  0.2506864831290798  0.7506864831290798
  0.2500000000000000  0.7493135168709202  0.2493135168709202
  0.2500000000000000  0.7493135168709202  0.7506864831290798
  0.7500000000000000  0.2499238157531067  0.2500761842468933
  0.7500000000000000  0.2499238157531067  0.7499238157531067
  0.7500000000000000  0.7500761842468933  0.2500761842468933
  0.7500000000000000  0.7500761842468933  0.7499238157531067
  0.9993135168709202  0.0000000000000000  0.2493135168709202
  0.9993135168709202  0.0000000000000000  0.7506864831290798
  0.0000761842468933  0.5000000000000000  0.2500761842468933
  0.0000761842468933  0.5000000000000000  0.7499238157531067
  0.5006864831290798  0.0000000000000000  0.2493135168709202
  0.5006864831290798  0.0000000000000000  0.7506864831290798
  0.4999238157531067  0.5000000000000000  0.2500761842468933
  0.4999238157531067  0.5000000000000000  0.7499238157531067
  0.0000761842468933  0.2499238157531067  0.0000000000000000
  0.9993135168709202  0.2506864831290798  0.5000000000000000
  0.0000761842468933  0.7500761842468933  0.0000000000000000
  0.9993135168709202  0.7493135168709202  0.5000000000000000
  0.4999238157531067  0.2499238157531067  0.0000000000000000
  0.5006864831290798  0.2506864831290798  0.5000000000000000
  0.4999238157531067  0.7500761842468933  0.0000000000000000
  0.5006864831290798  0.7493135168709202  0.5000000000000000
 
  0.00000000E+00  0.00000000E+00  0.00000000E+00
  0.00000000E+00  0.00000000E+00  0.00000000E+00
  0.00000000E+00  0.00000000E+00  0.00000000E+00
  0.00000000E+00  0.00000000E+00  0.00000000E+00
  0.00000000E+00  0.00000000E+00  0.00000000E+00
  0.00000000E+00  0.00000000E+00  0.00000000E+00
  0.00000000E+00  0.00000000E+00  0.00000000E+00
  0.00000000E+00  0.00000000E+00  0.00000000E+00
  0.00000000E+00  0.00000000E+00  0.00000000E+00
  0.00000000E+00  0.00000000E+00  0.00000000E+00
  0.00000000E+00  0.00000000E+00  0.00000000E+00
  0.00000000E+00  0.00000000E+00  0.00000000E+00
  0.00000000E+00  0.00000000E+00  0.00000000E+00
  0.00000000E+00  0.00000000E+00  0.00000000E+00
  0.00000000E+00  0.00000000E+00  0.00000000E+00
  0.00000000E+00  0.00000000E+00  0.00000000E+00
  0.00000000E+00  0.00000000E+00  0.00000000E+00
  0.00000000E+00  0.00000000E+00  0.00000000E+00
  0.00000000E+00  0.00000000E+00  0.00000000E+00
  0.00000000E+00  0.00000000E+00  0.00000000E+00
  0.00000000E+00  0.00000000E+00  0.00000000E+00
  0.00000000E+00  0.00000000E+00  0.00000000E+00
  0.00000000E+00  0.00000000E+00  0.00000000E+00
  0.00000000E+00  0.00000000E+00  0.00000000E+00
  0.00000000E+00  0.00000000E+00  0.00000000E+00
  0.00000000E+00  0.00000000E+00  0.00000000E+00
  0.00000000E+00  0.00000000E+00  0.00000000E+00
  0.00000000E+00  0.00000000E+00  0.00000000E+00
  0.00000000E+00  0.00000000E+00  0.00000000E+00
  0.00000000E+00  0.00000000E+00  0.00000000E+00
  0.00000000E+00  0.00000000E+00  0.00000000E+00
  0.00000000E+00  0.00000000E+00  0.00000000E+00
  0.00000000E+00  0.00000000E+00  0.00000000E+00
  0.00000000E+00  0.00000000E+00  0.00000000E+00
  0.00000000E+00  0.00000000E+00  0.00000000E+00
  0.00000000E+00  0.00000000E+00  0.00000000E+00
  0.00000000E+00  0.00000000E+00  0.00000000E+00
  0.00000000E+00  0.00000000E+00  0.00000000E+00
  0.00000000E+00  0.00000000E+00  0.00000000E+00
  0.00000000E+00  0.00000000E+00  0.00000000E+00
  0.00000000E+00  0.00000000E+00  0.00000000E+00
  0.00000000E+00  0.00000000E+00  0.00000000E+00
  0.00000000E+00  0.00000000E+00  0.00000000E+00
  0.00000000E+00  0.00000000E+00  0.00000000E+00
  0.00000000E+00  0.00000000E+00  0.00000000E+00
  0.00000000E+00  0.00000000E+00  0.00000000E+00
  0.00000000E+00  0.00000000E+00  0.00000000E+00
  0.00000000E+00  0.00000000E+00  0.00000000E+00
  0.00000000E+00  0.00000000E+00  0.00000000E+00
  0.00000000E+00  0.00000000E+00  0.00000000E+00
  0.00000000E+00  0.00000000E+00  0.00000000E+00
  0.00000000E+00  0.00000000E+00  0.00000000E+00
  0.00000000E+00  0.00000000E+00  0.00000000E+00
  0.00000000E+00  0.00000000E+00  0.00000000E+00
  0.00000000E+00  0.00000000E+00  0.00000000E+00
  0.00000000E+00  0.00000000E+00  0.00000000E+00
  0.00000000E+00  0.00000000E+00  0.00000000E+00
  0.00000000E+00  0.00000000E+00  0.00000000E+00
  0.00000000E+00  0.00000000E+00  0.00000000E+00
  0.00000000E+00  0.00000000E+00  0.00000000E+00
  0.00000000E+00  0.00000000E+00  0.00000000E+00
  0.00000000E+00  0.00000000E+00  0.00000000E+00
  0.00000000E+00  0.00000000E+00  0.00000000E+00
