Mg9 O8                                  
   1.00000000000000     
     0.0000000000000000    4.2468930000000000    4.2468930000000000
     4.2468930000000000    0.0000000000000000    4.2468930000000000
     4.2468930000000000    4.2468930000000000    0.0000000000000000
   Mg   O 
     9     8
Direct
  0.1241882251166970  0.1239591631718682  0.1238658236805179
  0.9767767155478566  0.9780539977697771  0.9834482515876104
  0.9816161042543357  0.9787538677780248  0.5589382561292311
  0.9832651021459711  0.5576564297232451  0.9792502246155053
  0.0001730235753783  0.4972954997114343  0.5012046415904763
  0.5587365179799377  0.9761794193217241  0.9807799930693619
  0.5001593777849607  0.9964178430151094  0.5019727795245359
  0.5003293467940750  0.4977606783466300  0.0002762022220253
  0.5015737801496627  0.4969777393759713  0.5003111379758707
  0.2510423041302730  0.2490342554986640  0.2522916112822031
  0.2538868970382495  0.2502307641721444  0.7441988138821998
  0.2517889729261356  0.7435676507409212  0.2521514337643538
  0.2565423391325936  0.7469534252452235  0.7487311066849429
  0.7442131637801452  0.2473949692552182  0.2534348166595493
  0.7474260121436984  0.2535892506257724  0.7491425152360733
  0.7474489137737734  0.7443773678867345  0.2574084484543633
  0.7495572037262548  0.7446766783615431  0.7481409436411752
 
  0.00000000E+00  0.00000000E+00  0.00000000E+00
  0.00000000E+00  0.00000000E+00  0.00000000E+00
  0.00000000E+00  0.00000000E+00  0.00000000E+00
  0.00000000E+00  0.00000000E+00  0.00000000E+00
  0.00000000E+00  0.00000000E+00  0.00000000E+00
  0.00000000E+00  0.00000000E+00  0.00000000E+00
  0.00000000E+00  0.00000000E+00  0.00000000E+00
  0.00000000E+00  0.00000000E+00  0.00000000E+00
  0.00000000E+00  0.00000000E+00  0.00000000E+00
  0.00000000E+00  0.00000000E+00  0.00000000E+00
  0.00000000E+00  0.00000000E+00  0.00000000E+00
  0.00000000E+00  0.00000000E+00  0.00000000E+00
  0.00000000E+00  0.00000000E+00  0.00000000E+00
  0.00000000E+00  0.00000000E+00  0.00000000E+00
  0.00000000E+00  0.00000000E+00  0.00000000E+00
  0.00000000E+00  0.00000000E+00  0.00000000E+00
  0.00000000E+00  0.00000000E+00  0.00000000E+00
