Mg9 O8                                  
   1.00000000000000     
     0.0000000000000000    4.2468930000000000    4.2468930000000000
     4.2468930000000000    0.0000000000000000    4.2468930000000000
     4.2468930000000000    4.2468930000000000    0.0000000000000000
   Mg   O 
     9     8
Direct
  0.1243588554472055  0.1236065047606587  0.1238907458990894
  0.9766127719496893  0.9779359940740378  0.9833771041061965
  0.9816274098416429  0.9786700170060882  0.5592074524629851
  0.9832877256735699  0.5576530068314796  0.9792515108511424
  0.9998582438217483  0.4974198727070060  0.5012431152864352
  0.5591528216668138  0.9759816134928059  0.9807282558197414
  0.5001718825568133  0.9963176598775760  0.5019902241909833
  0.5003721500593201  0.4979174867009135  0.0000027967599081
  0.5016383674345093  0.4971165053801272  0.5004064843881437
  0.2506892937650207  0.2491464555218599  0.2520687493355425
  0.2536021150276255  0.2503227109818127  0.7445530906075462
  0.2517252125786911  0.7436086217330953  0.2521261406068191
  0.2570990295528119  0.7467965075299574  0.7485820891980168
  0.7446690525397557  0.2475520711851331  0.2531400130255292
  0.7471993016486635  0.2541553676216211  0.7490188468607144
  0.7472253819821404  0.7441875792218795  0.2580184568944262
  0.7494343844539770  0.7444910253739394  0.7479419237067759
 
  0.00000000E+00  0.00000000E+00  0.00000000E+00
  0.00000000E+00  0.00000000E+00  0.00000000E+00
  0.00000000E+00  0.00000000E+00  0.00000000E+00
  0.00000000E+00  0.00000000E+00  0.00000000E+00
  0.00000000E+00  0.00000000E+00  0.00000000E+00
  0.00000000E+00  0.00000000E+00  0.00000000E+00
  0.00000000E+00  0.00000000E+00  0.00000000E+00
  0.00000000E+00  0.00000000E+00  0.00000000E+00
  0.00000000E+00  0.00000000E+00  0.00000000E+00
  0.00000000E+00  0.00000000E+00  0.00000000E+00
  0.00000000E+00  0.00000000E+00  0.00000000E+00
  0.00000000E+00  0.00000000E+00  0.00000000E+00
  0.00000000E+00  0.00000000E+00  0.00000000E+00
  0.00000000E+00  0.00000000E+00  0.00000000E+00
  0.00000000E+00  0.00000000E+00  0.00000000E+00
  0.00000000E+00  0.00000000E+00  0.00000000E+00
  0.00000000E+00  0.00000000E+00  0.00000000E+00
