Mg9 O8
1.0
0.000000 4.246893 4.246893
4.246893 0.000000 4.246893
4.246893 4.246893 0.000000
Mg O
9 8
direct
0.124102 0.125517 0.124296 Mg
0.994157 0.980160 0.012918 Mg
0.999208 0.000111 0.500484 Mg
0.010069 0.495978 0.009645 Mg
0.000000 0.500000 0.500000 Mg
0.499483 0.000529 0.999439 Mg
0.500000 0.000000 0.500000 Mg
0.500000 0.500000 0.000000 Mg
0.500000 0.500000 0.500000 Mg
0.249507 0.250521 0.249772 O
0.250944 0.258547 0.744018 O
0.252280 0.749640 0.248731 O
0.250000 0.750000 0.750000 O
0.748974 0.221876 0.246244 O
0.750000 0.250000 0.750000 O
0.750000 0.750000 0.250000 O
0.750000 0.750000 0.750000 O
