CIF file-3x3x3                          
   1.00000000000000     
    20.8541994095999996    0.0000000000000000    0.0000000000000000
     6.9744817727999999   19.6533518009999995    0.0000000000000000
   -13.9143211727999994   -9.8266621866000001   12.0302123664000007
   Zn   Sn   P 
    54    54   108
Direct
  0.1666666666666714  0.1666666666666714  0.0000000000000000
  0.5000000000000000  0.1666666666666714  0.0000000000000000
  0.8333333333333286  0.1666666666666714  0.0000000000000000
  0.1666666666666714  0.5000000000000000  0.0000000000000000
  0.5000000000000000  0.5000000000000000  0.0000000000000000
  0.8333333333333286  0.5000000000000000  0.0000000000000000
  0.1666666666666714  0.8333333333333286  0.0000000000000000
  0.5000000000000000  0.8333333333333286  0.0000000000000000
  0.8333333333333286  0.8333333333333286  0.0000000000000000
  0.1666666666666714  0.1666666666666714  0.3333333333333286
  0.5000000000000000  0.1666666666666714  0.3333333333333286
  0.8333333333333286  0.1666666666666714  0.3333333333333286
  0.1666666666666714  0.5000000000000000  0.3333333333333286
  0.5000000000000000  0.5000000000000000  0.3333333333333286
  0.8333333333333286  0.5000000000000000  0.3333333333333286
  0.1666666666666714  0.8333333333333286  0.3333333333333286
  0.5000000000000000  0.8333333333333286  0.3333333333333286
  0.8333333333333286  0.8333333333333286  0.3333333333333286
  0.1666666666666714  0.1666666666666714  0.6666666666666714
  0.5000000000000000  0.1666666666666714  0.6666666666666714
  0.8333333333333286  0.1666666666666714  0.6666666666666714
  0.1666666666666714  0.5000000000000000  0.6666666666666714
  0.5000000000000000  0.5000000000000000  0.6666666666666714
  0.8333333333333286  0.5000000000000000  0.6666666666666714
  0.1666666666666714  0.8333333333333286  0.6666666666666714
  0.5000000000000000  0.8333333333333286  0.6666666666666714
  0.8333333333333286  0.8333333333333286  0.6666666666666714
  0.0833333333333286  0.2500000000000000  0.1666666666666714
  0.4166666666666714  0.2500000000000000  0.1666666666666714
  0.7500000000000000  0.2500000000000000  0.1666666666666714
  0.0833333333333286  0.5833333333333286  0.1666666666666714
  0.4166666666666714  0.5833333333333286  0.1666666666666714
  0.7500000000000000  0.5833333333333286  0.1666666666666714
  0.0833333333333286  0.9166666666666714  0.1666666666666714
  0.4166666666666714  0.9166666666666714  0.1666666666666714
  0.7500000000000000  0.9166666666666714  0.1666666666666714
  0.0833333333333286  0.2500000000000000  0.5000000000000000
  0.4166666666666714  0.2500000000000000  0.5000000000000000
  0.7500000000000000  0.2500000000000000  0.5000000000000000
  0.0833333333333286  0.5833333333333286  0.5000000000000000
  0.4166666666666714  0.5833333333333286  0.5000000000000000
  0.7500000000000000  0.5833333333333286  0.5000000000000000
  0.0833333333333286  0.9166666666666714  0.5000000000000000
  0.4166666666666714  0.9166666666666714  0.5000000000000000
  0.7500000000000000  0.9166666666666714  0.5000000000000000
  0.0833333333333286  0.2500000000000000  0.8333333333333286
  0.4166666666666714  0.2500000000000000  0.8333333333333286
  0.7500000000000000  0.2500000000000000  0.8333333333333286
  0.0833333333333286  0.5833333333333286  0.8333333333333286
  0.4166666666666714  0.5833333333333286  0.8333333333333286
  0.7500000000000000  0.5833333333333286  0.8333333333333286
  0.0833333333333286  0.9166666666666714  0.8333333333333286
  0.4166666666666714  0.9166666666666714  0.8333333333333286
  0.7500000000000000  0.9166666666666714  0.8333333333333286
  0.0000000000000000  0.0000000000000000  0.0000000000000000
  0.3333333333333286  0.0000000000000000  0.0000000000000000
  0.6666666666666714  0.0000000000000000  0.0000000000000000
  0.0000000000000000  0.3333333333333286  0.0000000000000000
  0.3333333333333286  0.3333333333333286  0.0000000000000000
  0.6666666666666714  0.3333333333333286  0.0000000000000000
  0.0000000000000000  0.6666666666666714  0.0000000000000000
  0.3333333333333286  0.6666666666666714  0.0000000000000000
  0.6666666666666714  0.6666666666666714  0.0000000000000000
  0.0000000000000000  0.0000000000000000  0.3333333333333286
  0.3333333333333286  0.0000000000000000  0.3333333333333286
  0.6666666666666714  0.0000000000000000  0.3333333333333286
  0.0000000000000000  0.3333333333333286  0.3333333333333286
  0.3333333333333286  0.3333333333333286  0.3333333333333286
  0.6666666666666714  0.3333333333333286  0.3333333333333286
  0.0000000000000000  0.6666666666666714  0.3333333333333286
  0.3333333333333286  0.6666666666666714  0.3333333333333286
  0.6666666666666714  0.6666666666666714  0.3333333333333286
  0.0000000000000000  0.0000000000000000  0.6666666666666714
  0.3333333333333286  0.0000000000000000  0.6666666666666714
  0.6666666666666714  0.0000000000000000  0.6666666666666714
  0.0000000000000000  0.3333333333333286  0.6666666666666714
  0.3333333333333286  0.3333333333333286  0.6666666666666714
  0.6666666666666714  0.3333333333333286  0.6666666666666714
  0.0000000000000000  0.6666666666666714  0.6666666666666714
  0.3333333333333286  0.6666666666666714  0.6666666666666714
  0.6666666666666714  0.6666666666666714  0.6666666666666714
  0.2500000000000000  0.0833333333333286  0.1666666666666714
  0.5833333333333286  0.0833333333333286  0.1666666666666714
  0.9166666666666714  0.0833333333333286  0.1666666666666714
  0.2500000000000000  0.4166666666666714  0.1666666666666714
  0.5833333333333286  0.4166666666666714  0.1666666666666714
  0.9166666666666714  0.4166666666666714  0.1666666666666714
  0.2500000000000000  0.7500000000000000  0.1666666666666714
  0.5833333333333286  0.7500000000000000  0.1666666666666714
  0.9166666666666714  0.7500000000000000  0.1666666666666714
  0.2500000000000000  0.0833333333333286  0.5000000000000000
  0.5833333333333286  0.0833333333333286  0.5000000000000000
  0.9166666666666714  0.0833333333333286  0.5000000000000000
  0.2500000000000000  0.4166666666666714  0.5000000000000000
  0.5833333333333286  0.4166666666666714  0.5000000000000000
  0.9166666666666714  0.4166666666666714  0.5000000000000000
  0.2500000000000000  0.7500000000000000  0.5000000000000000
  0.5833333333333286  0.7500000000000000  0.5000000000000000
  0.9166666666666714  0.7500000000000000  0.5000000000000000
  0.2500000000000000  0.0833333333333286  0.8333333333333286
  0.5833333333333286  0.0833333333333286  0.8333333333333286
  0.9166666666666714  0.0833333333333286  0.8333333333333286
  0.2500000000000000  0.4166666666666714  0.8333333333333286
  0.5833333333333286  0.4166666666666714  0.8333333333333286
  0.9166666666666714  0.4166666666666714  0.8333333333333286
  0.2500000000000000  0.7500000000000000  0.8333333333333286
  0.5833333333333286  0.7500000000000000  0.8333333333333286
  0.9166666666666714  0.7500000000000000  0.8333333333333286
  0.2916666666666714  0.2856900096666735  0.1606899996666726
  0.6250000000000000  0.2856900096666735  0.1606899996666726
  0.9583333333333286  0.2856900096666735  0.1606899996666726
  0.2916666666666714  0.6190233430000021  0.1606899996666726
  0.6250000000000000  0.6190233430000021  0.1606899996666726
  0.9583333333333286  0.6190233430000021  0.1606899996666726
  0.2916666666666714  0.9523566763333307  0.1606899996666726
  0.6250000000000000  0.9523566763333307  0.1606899996666726
  0.9583333333333286  0.9523566763333307  0.1606899996666726
  0.2916666666666714  0.2856900096666735  0.4940233330000012
  0.6250000000000000  0.2856900096666735  0.4940233330000012
  0.9583333333333286  0.2856900096666735  0.4940233330000012
  0.2916666666666714  0.6190233430000021  0.4940233330000012
  0.6250000000000000  0.6190233430000021  0.4940233330000012
  0.9583333333333286  0.6190233430000021  0.4940233330000012
  0.2916666666666714  0.9523566763333307  0.4940233330000012
  0.6250000000000000  0.9523566763333307  0.4940233330000012
  0.9583333333333286  0.9523566763333307  0.4940233330000012
  0.2916666666666714  0.2856900096666735  0.8273566663333298
  0.6250000000000000  0.2856900096666735  0.8273566663333298
  0.9583333333333286  0.2856900096666735  0.8273566663333298
  0.2916666666666714  0.6190233430000021  0.8273566663333298
  0.6250000000000000  0.6190233430000021  0.8273566663333298
  0.9583333333333286  0.6190233430000021  0.8273566663333298
  0.2916666666666714  0.9523566763333307  0.8273566663333298
  0.6250000000000000  0.9523566763333307  0.8273566663333298
  0.9583333333333286  0.9523566763333307  0.8273566663333298
  0.1250000000000000  0.1309766669999988  0.1726433236666693
  0.4583333333333286  0.1309766669999988  0.1726433236666693
  0.7916666666666714  0.1309766669999988  0.1726433236666693
  0.1250000000000000  0.4643100003333274  0.1726433236666693
  0.4583333333333286  0.4643100003333274  0.1726433236666693
  0.7916666666666714  0.4643100003333274  0.1726433236666693
  0.1250000000000000  0.7976433336666702  0.1726433236666693
  0.4583333333333286  0.7976433336666702  0.1726433236666693
  0.7916666666666714  0.7976433336666702  0.1726433236666693
  0.1250000000000000  0.1309766669999988  0.5059766569999979
  0.4583333333333286  0.1309766669999988  0.5059766569999979
  0.7916666666666714  0.1309766669999988  0.5059766569999979
  0.1250000000000000  0.4643100003333274  0.5059766569999979
  0.4583333333333286  0.4643100003333274  0.5059766569999979
  0.7916666666666714  0.4643100003333274  0.5059766569999979
  0.1250000000000000  0.7976433336666702  0.5059766569999979
  0.4583333333333286  0.7976433336666702  0.5059766569999979
  0.7916666666666714  0.7976433336666702  0.5059766569999979
  0.1250000000000000  0.1309766669999988  0.8393099903333265
  0.4583333333333286  0.1309766669999988  0.8393099903333265
  0.7916666666666714  0.1309766669999988  0.8393099903333265
  0.1250000000000000  0.4643100003333274  0.8393099903333265
  0.4583333333333286  0.4643100003333274  0.8393099903333265
  0.7916666666666714  0.4643100003333274  0.8393099903333265
  0.1250000000000000  0.7976433336666702  0.8393099903333265
  0.4583333333333286  0.7976433336666702  0.8393099903333265
  0.7916666666666714  0.7976433336666702  0.8393099903333265
  0.0476433336666702  0.2083333333333286  0.0059766663333320
  0.3809766669999988  0.2083333333333286  0.0059766663333320
  0.7143100003333274  0.2083333333333286  0.0059766663333320
  0.0476433336666702  0.5416666666666714  0.0059766663333320
  0.3809766669999988  0.5416666666666714  0.0059766663333320
  0.7143100003333274  0.5416666666666714  0.0059766663333320
  0.0476433336666702  0.8750000000000000  0.0059766663333320
  0.3809766669999988  0.8750000000000000  0.0059766663333320
  0.7143100003333274  0.8750000000000000  0.0059766663333320
  0.0476433336666702  0.2083333333333286  0.3393099996666677
  0.3809766669999988  0.2083333333333286  0.3393099996666677
  0.7143100003333274  0.2083333333333286  0.3393099996666677
  0.0476433336666702  0.5416666666666714  0.3393099996666677
  0.3809766669999988  0.5416666666666714  0.3393099996666677
  0.7143100003333274  0.5416666666666714  0.3393099996666677
  0.0476433336666702  0.8750000000000000  0.3393099996666677
  0.3809766669999988  0.8750000000000000  0.3393099996666677
  0.7143100003333274  0.8750000000000000  0.3393099996666677
  0.0476433336666702  0.2083333333333286  0.6726433330000035
  0.3809766669999988  0.2083333333333286  0.6726433330000035
  0.7143100003333274  0.2083333333333286  0.6726433330000035
  0.0476433336666702  0.5416666666666714  0.6726433330000035
  0.3809766669999988  0.5416666666666714  0.6726433330000035
  0.7143100003333274  0.5416666666666714  0.6726433330000035
  0.0476433336666702  0.8750000000000000  0.6726433330000035
  0.3809766669999988  0.8750000000000000  0.6726433330000035
  0.7143100003333274  0.8750000000000000  0.6726433330000035
  0.2023566763333307  0.0416666666666714  0.3273566763333307
  0.5356900096666735  0.0416666666666714  0.3273566763333307
  0.8690233430000021  0.0416666666666714  0.3273566763333307
  0.2023566763333307  0.3750000000000000  0.3273566763333307
  0.5356900096666735  0.3750000000000000  0.3273566763333307
  0.8690233430000021  0.3750000000000000  0.3273566763333307
  0.2023566763333307  0.7083333333333286  0.3273566763333307
  0.5356900096666735  0.7083333333333286  0.3273566763333307
  0.8690233430000021  0.7083333333333286  0.3273566763333307
  0.2023566763333307  0.0416666666666714  0.6606900096666735
  0.5356900096666735  0.0416666666666714  0.6606900096666735
  0.8690233430000021  0.0416666666666714  0.6606900096666735
  0.2023566763333307  0.3750000000000000  0.6606900096666735
  0.5356900096666735  0.3750000000000000  0.6606900096666735
  0.8690233430000021  0.3750000000000000  0.6606900096666735
  0.2023566763333307  0.7083333333333286  0.6606900096666735
  0.5356900096666735  0.7083333333333286  0.6606900096666735
  0.8690233430000021  0.7083333333333286  0.6606900096666735
  0.2023566763333307  0.0416666666666714  0.9940233430000021
  0.5356900096666735  0.0416666666666714  0.9940233430000021
  0.8690233430000021  0.0416666666666714  0.9940233430000021
  0.2023566763333307  0.3750000000000000  0.9940233430000021
  0.5356900096666735  0.3750000000000000  0.9940233430000021
  0.8690233430000021  0.3750000000000000  0.9940233430000021
  0.2023566763333307  0.7083333333333286  0.9940233430000021
  0.5356900096666735  0.7083333333333286  0.9940233430000021
  0.8690233430000021  0.7083333333333286  0.9940233430000021
 
  0.00000000E+00  0.00000000E+00  0.00000000E+00
  0.00000000E+00  0.00000000E+00  0.00000000E+00
  0.00000000E+00  0.00000000E+00  0.00000000E+00
  0.00000000E+00  0.00000000E+00  0.00000000E+00
  0.00000000E+00  0.00000000E+00  0.00000000E+00
  0.00000000E+00  0.00000000E+00  0.00000000E+00
  0.00000000E+00  0.00000000E+00  0.00000000E+00
  0.00000000E+00  0.00000000E+00  0.00000000E+00
  0.00000000E+00  0.00000000E+00  0.00000000E+00
  0.00000000E+00  0.00000000E+00  0.00000000E+00
  0.00000000E+00  0.00000000E+00  0.00000000E+00
  0.00000000E+00  0.00000000E+00  0.00000000E+00
  0.00000000E+00  0.00000000E+00  0.00000000E+00
  0.00000000E+00  0.00000000E+00  0.00000000E+00
  0.00000000E+00  0.00000000E+00  0.00000000E+00
  0.00000000E+00  0.00000000E+00  0.00000000E+00
  0.00000000E+00  0.00000000E+00  0.00000000E+00
  0.00000000E+00  0.00000000E+00  0.00000000E+00
  0.00000000E+00  0.00000000E+00  0.00000000E+00
  0.00000000E+00  0.00000000E+00  0.00000000E+00
  0.00000000E+00  0.00000000E+00  0.00000000E+00
  0.00000000E+00  0.00000000E+00  0.00000000E+00
  0.00000000E+00  0.00000000E+00  0.00000000E+00
  0.00000000E+00  0.00000000E+00  0.00000000E+00
  0.00000000E+00  0.00000000E+00  0.00000000E+00
  0.00000000E+00  0.00000000E+00  0.00000000E+00
  0.00000000E+00  0.00000000E+00  0.00000000E+00
  0.00000000E+00  0.00000000E+00  0.00000000E+00
  0.00000000E+00  0.00000000E+00  0.00000000E+00
  0.00000000E+00  0.00000000E+00  0.00000000E+00
  0.00000000E+00  0.00000000E+00  0.00000000E+00
  0.00000000E+00  0.00000000E+00  0.00000000E+00
  0.00000000E+00  0.00000000E+00  0.00000000E+00
  0.00000000E+00  0.00000000E+00  0.00000000E+00
  0.00000000E+00  0.00000000E+00  0.00000000E+00
  0.00000000E+00  0.00000000E+00  0.00000000E+00
  0.00000000E+00  0.00000000E+00  0.00000000E+00
  0.00000000E+00  0.00000000E+00  0.00000000E+00
  0.00000000E+00  0.00000000E+00  0.00000000E+00
  0.00000000E+00  0.00000000E+00  0.00000000E+00
  0.00000000E+00  0.00000000E+00  0.00000000E+00
  0.00000000E+00  0.00000000E+00  0.00000000E+00
  0.00000000E+00  0.00000000E+00  0.00000000E+00
  0.00000000E+00  0.00000000E+00  0.00000000E+00
  0.00000000E+00  0.00000000E+00  0.00000000E+00
  0.00000000E+00  0.00000000E+00  0.00000000E+00
  0.00000000E+00  0.00000000E+00  0.00000000E+00
  0.00000000E+00  0.00000000E+00  0.00000000E+00
  0.00000000E+00  0.00000000E+00  0.00000000E+00
  0.00000000E+00  0.00000000E+00  0.00000000E+00
  0.00000000E+00  0.00000000E+00  0.00000000E+00
  0.00000000E+00  0.00000000E+00  0.00000000E+00
  0.00000000E+00  0.00000000E+00  0.00000000E+00
  0.00000000E+00  0.00000000E+00  0.00000000E+00
  0.00000000E+00  0.00000000E+00  0.00000000E+00
  0.00000000E+00  0.00000000E+00  0.00000000E+00
  0.00000000E+00  0.00000000E+00  0.00000000E+00
  0.00000000E+00  0.00000000E+00  0.00000000E+00
  0.00000000E+00  0.00000000E+00  0.00000000E+00
  0.00000000E+00  0.00000000E+00  0.00000000E+00
  0.00000000E+00  0.00000000E+00  0.00000000E+00
  0.00000000E+00  0.00000000E+00  0.00000000E+00
  0.00000000E+00  0.00000000E+00  0.00000000E+00
  0.00000000E+00  0.00000000E+00  0.00000000E+00
  0.00000000E+00  0.00000000E+00  0.00000000E+00
  0.00000000E+00  0.00000000E+00  0.00000000E+00
  0.00000000E+00  0.00000000E+00  0.00000000E+00
  0.00000000E+00  0.00000000E+00  0.00000000E+00
  0.00000000E+00  0.00000000E+00  0.00000000E+00
  0.00000000E+00  0.00000000E+00  0.00000000E+00
  0.00000000E+00  0.00000000E+00  0.00000000E+00
  0.00000000E+00  0.00000000E+00  0.00000000E+00
  0.00000000E+00  0.00000000E+00  0.00000000E+00
  0.00000000E+00  0.00000000E+00  0.00000000E+00
  0.00000000E+00  0.00000000E+00  0.00000000E+00
  0.00000000E+00  0.00000000E+00  0.00000000E+00
  0.00000000E+00  0.00000000E+00  0.00000000E+00
  0.00000000E+00  0.00000000E+00  0.00000000E+00
  0.00000000E+00  0.00000000E+00  0.00000000E+00
  0.00000000E+00  0.00000000E+00  0.00000000E+00
  0.00000000E+00  0.00000000E+00  0.00000000E+00
  0.00000000E+00  0.00000000E+00  0.00000000E+00
  0.00000000E+00  0.00000000E+00  0.00000000E+00
  0.00000000E+00  0.00000000E+00  0.00000000E+00
  0.00000000E+00  0.00000000E+00  0.00000000E+00
  0.00000000E+00  0.00000000E+00  0.00000000E+00
  0.00000000E+00  0.00000000E+00  0.00000000E+00
  0.00000000E+00  0.00000000E+00  0.00000000E+00
  0.00000000E+00  0.00000000E+00  0.00000000E+00
  0.00000000E+00  0.00000000E+00  0.00000000E+00
  0.00000000E+00  0.00000000E+00  0.00000000E+00
  0.00000000E+00  0.00000000E+00  0.00000000E+00
  0.00000000E+00  0.00000000E+00  0.00000000E+00
  0.00000000E+00  0.00000000E+00  0.00000000E+00
  0.00000000E+00  0.00000000E+00  0.00000000E+00
  0.00000000E+00  0.00000000E+00  0.00000000E+00
  0.00000000E+00  0.00000000E+00  0.00000000E+00
  0.00000000E+00  0.00000000E+00  0.00000000E+00
  0.00000000E+00  0.00000000E+00  0.00000000E+00
  0.00000000E+00  0.00000000E+00  0.00000000E+00
  0.00000000E+00  0.00000000E+00  0.00000000E+00
  0.00000000E+00  0.00000000E+00  0.00000000E+00
  0.00000000E+00  0.00000000E+00  0.00000000E+00
  0.00000000E+00  0.00000000E+00  0.00000000E+00
  0.00000000E+00  0.00000000E+00  0.00000000E+00
  0.00000000E+00  0.00000000E+00  0.00000000E+00
  0.00000000E+00  0.00000000E+00  0.00000000E+00
  0.00000000E+00  0.00000000E+00  0.00000000E+00
  0.00000000E+00  0.00000000E+00  0.00000000E+00
  0.00000000E+00  0.00000000E+00  0.00000000E+00
  0.00000000E+00  0.00000000E+00  0.00000000E+00
  0.00000000E+00  0.00000000E+00  0.00000000E+00
  0.00000000E+00  0.00000000E+00  0.00000000E+00
  0.00000000E+00  0.00000000E+00  0.00000000E+00
  0.00000000E+00  0.00000000E+00  0.00000000E+00
  0.00000000E+00  0.00000000E+00  0.00000000E+00
  0.00000000E+00  0.00000000E+00  0.00000000E+00
  0.00000000E+00  0.00000000E+00  0.00000000E+00
  0.00000000E+00  0.00000000E+00  0.00000000E+00
  0.00000000E+00  0.00000000E+00  0.00000000E+00
  0.00000000E+00  0.00000000E+00  0.00000000E+00
  0.00000000E+00  0.00000000E+00  0.00000000E+00
  0.00000000E+00  0.00000000E+00  0.00000000E+00
  0.00000000E+00  0.00000000E+00  0.00000000E+00
  0.00000000E+00  0.00000000E+00  0.00000000E+00
  0.00000000E+00  0.00000000E+00  0.00000000E+00
  0.00000000E+00  0.00000000E+00  0.00000000E+00
  0.00000000E+00  0.00000000E+00  0.00000000E+00
  0.00000000E+00  0.00000000E+00  0.00000000E+00
  0.00000000E+00  0.00000000E+00  0.00000000E+00
  0.00000000E+00  0.00000000E+00  0.00000000E+00
  0.00000000E+00  0.00000000E+00  0.00000000E+00
  0.00000000E+00  0.00000000E+00  0.00000000E+00
  0.00000000E+00  0.00000000E+00  0.00000000E+00
  0.00000000E+00  0.00000000E+00  0.00000000E+00
  0.00000000E+00  0.00000000E+00  0.00000000E+00
  0.00000000E+00  0.00000000E+00  0.00000000E+00
  0.00000000E+00  0.00000000E+00  0.00000000E+00
  0.00000000E+00  0.00000000E+00  0.00000000E+00
  0.00000000E+00  0.00000000E+00  0.00000000E+00
  0.00000000E+00  0.00000000E+00  0.00000000E+00
  0.00000000E+00  0.00000000E+00  0.00000000E+00
  0.00000000E+00  0.00000000E+00  0.00000000E+00
  0.00000000E+00  0.00000000E+00  0.00000000E+00
  0.00000000E+00  0.00000000E+00  0.00000000E+00
  0.00000000E+00  0.00000000E+00  0.00000000E+00
  0.00000000E+00  0.00000000E+00  0.00000000E+00
  0.00000000E+00  0.00000000E+00  0.00000000E+00
  0.00000000E+00  0.00000000E+00  0.00000000E+00
  0.00000000E+00  0.00000000E+00  0.00000000E+00
  0.00000000E+00  0.00000000E+00  0.00000000E+00
  0.00000000E+00  0.00000000E+00  0.00000000E+00
  0.00000000E+00  0.00000000E+00  0.00000000E+00
  0.00000000E+00  0.00000000E+00  0.00000000E+00
  0.00000000E+00  0.00000000E+00  0.00000000E+00
  0.00000000E+00  0.00000000E+00  0.00000000E+00
  0.00000000E+00  0.00000000E+00  0.00000000E+00
  0.00000000E+00  0.00000000E+00  0.00000000E+00
  0.00000000E+00  0.00000000E+00  0.00000000E+00
  0.00000000E+00  0.00000000E+00  0.00000000E+00
  0.00000000E+00  0.00000000E+00  0.00000000E+00
  0.00000000E+00  0.00000000E+00  0.00000000E+00
  0.00000000E+00  0.00000000E+00  0.00000000E+00
  0.00000000E+00  0.00000000E+00  0.00000000E+00
  0.00000000E+00  0.00000000E+00  0.00000000E+00
  0.00000000E+00  0.00000000E+00  0.00000000E+00
  0.00000000E+00  0.00000000E+00  0.00000000E+00
  0.00000000E+00  0.00000000E+00  0.00000000E+00
  0.00000000E+00  0.00000000E+00  0.00000000E+00
  0.00000000E+00  0.00000000E+00  0.00000000E+00
  0.00000000E+00  0.00000000E+00  0.00000000E+00
  0.00000000E+00  0.00000000E+00  0.00000000E+00
  0.00000000E+00  0.00000000E+00  0.00000000E+00
  0.00000000E+00  0.00000000E+00  0.00000000E+00
  0.00000000E+00  0.00000000E+00  0.00000000E+00
  0.00000000E+00  0.00000000E+00  0.00000000E+00
  0.00000000E+00  0.00000000E+00  0.00000000E+00
  0.00000000E+00  0.00000000E+00  0.00000000E+00
  0.00000000E+00  0.00000000E+00  0.00000000E+00
  0.00000000E+00  0.00000000E+00  0.00000000E+00
  0.00000000E+00  0.00000000E+00  0.00000000E+00
  0.00000000E+00  0.00000000E+00  0.00000000E+00
  0.00000000E+00  0.00000000E+00  0.00000000E+00
  0.00000000E+00  0.00000000E+00  0.00000000E+00
  0.00000000E+00  0.00000000E+00  0.00000000E+00
  0.00000000E+00  0.00000000E+00  0.00000000E+00
  0.00000000E+00  0.00000000E+00  0.00000000E+00
  0.00000000E+00  0.00000000E+00  0.00000000E+00
  0.00000000E+00  0.00000000E+00  0.00000000E+00
  0.00000000E+00  0.00000000E+00  0.00000000E+00
  0.00000000E+00  0.00000000E+00  0.00000000E+00
  0.00000000E+00  0.00000000E+00  0.00000000E+00
  0.00000000E+00  0.00000000E+00  0.00000000E+00
  0.00000000E+00  0.00000000E+00  0.00000000E+00
  0.00000000E+00  0.00000000E+00  0.00000000E+00
  0.00000000E+00  0.00000000E+00  0.00000000E+00
  0.00000000E+00  0.00000000E+00  0.00000000E+00
  0.00000000E+00  0.00000000E+00  0.00000000E+00
  0.00000000E+00  0.00000000E+00  0.00000000E+00
  0.00000000E+00  0.00000000E+00  0.00000000E+00
  0.00000000E+00  0.00000000E+00  0.00000000E+00
  0.00000000E+00  0.00000000E+00  0.00000000E+00
  0.00000000E+00  0.00000000E+00  0.00000000E+00
  0.00000000E+00  0.00000000E+00  0.00000000E+00
  0.00000000E+00  0.00000000E+00  0.00000000E+00
  0.00000000E+00  0.00000000E+00  0.00000000E+00
  0.00000000E+00  0.00000000E+00  0.00000000E+00
  0.00000000E+00  0.00000000E+00  0.00000000E+00
  0.00000000E+00  0.00000000E+00  0.00000000E+00
  0.00000000E+00  0.00000000E+00  0.00000000E+00
  0.00000000E+00  0.00000000E+00  0.00000000E+00
  0.00000000E+00  0.00000000E+00  0.00000000E+00
  0.00000000E+00  0.00000000E+00  0.00000000E+00
  0.00000000E+00  0.00000000E+00  0.00000000E+00
  0.00000000E+00  0.00000000E+00  0.00000000E+00
  0.00000000E+00  0.00000000E+00  0.00000000E+00
