Li2 O3 Ti1-2x2x1
1.0
   10.18929549016614      0.00000000000000     -0.01664314898753
    0.00000000000000     17.69117824769984      0.00000000000000
   -1.72448014273446      0.00000000000000      9.66674432599370
 64 32 96
Direct
    0.12068641802356      0.04015803407184      0.99945981942233 # Li1
    0.62068641802356      0.04015803407184      0.99945981942233 # Li2
    0.12068641802356      0.54015803407184      0.99945981942233 # Li3
    0.62068641802356      0.54015803407184      0.99945981942233 # Li4
    0.37931356697644      0.45984195492817      0.00054018057767 # Li5
    0.87931356697644      0.45984195492817      0.00054018057767 # Li6
    0.37931356697644      0.95984195492817      0.00054018057767 # Li7
    0.87931356697644      0.95984195492817      0.00054018057767 # Li8
    0.37931356697644      0.04015803407184      0.50054018057767 # Li9
    0.87931356697644      0.04015803407184      0.50054018057767 # Li10
    0.37931356697644      0.54015803407184      0.50054018057767 # Li11
    0.87931356697644      0.54015803407184      0.50054018057767 # Li12
    0.12068641802356      0.45984195492817      0.49945981942233 # Li13
    0.62068641802356      0.45984195492817      0.49945981942233 # Li14
    0.12068641802356      0.95984195492817      0.49945981942233 # Li15
    0.62068641802356      0.95984195492817      0.49945981942233 # Li16
    0.37068643302356      0.29015804507183      0.99945981942233 # Li17
    0.87068643302356      0.29015804507183      0.99945981942233 # Li18
    0.37068643302356      0.79015804507183      0.99945981942233 # Li19
    0.87068643302356      0.79015804507183      0.99945981942233 # Li20
    0.12931358197644      0.20984196992816      0.00054018057767 # Li21
    0.62931358197644      0.20984196992816      0.00054018057767 # Li22
    0.12931358197644      0.70984196992816      0.00054018057767 # Li23
    0.62931358197644      0.70984196992816      0.00054018057767 # Li24
    0.12931358197644      0.29015804507183      0.50054018057767 # Li25
    0.62931358197644      0.29015804507183      0.50054018057767 # Li26
    0.12931358197644      0.79015804507183      0.50054018057767 # Li27
    0.62931358197644      0.79015804507183      0.50054018057767 # Li28
    0.37068643302356      0.20984196992816      0.49945981942233 # Li29
    0.87068643302356      0.20984196992816      0.49945981942233 # Li30
    0.37068643302356      0.70984196992816      0.49945981942233 # Li31
    0.87068643302356      0.70984196992816      0.49945981942233 # Li32
    0.12500000000000      0.12500000000000      0.50000000000000 # Li33
    0.62500000000000      0.12500000000000      0.50000000000000 # Li34
    0.12500000000000      0.62500000000000      0.50000000000000 # Li35
    0.62500000000000      0.62500000000000      0.50000000000000 # Li36
    0.37500000000000      0.37500000000000      0.50000000000000 # Li37
    0.87500000000000      0.37500000000000      0.50000000000000 # Li38
    0.37500000000000      0.87500000000000      0.50000000000000 # Li39
    0.87500000000000      0.87500000000000      0.50000000000000 # Li40
    0.37500000000000      0.12500000000000      0.00000000000000 # Li41
    0.87500000000000      0.12500000000000      0.00000000000000 # Li42
    0.37500000000000      0.62500000000000      0.00000000000000 # Li43
    0.87500000000000      0.62500000000000      0.00000000000000 # Li44
    0.12500000000000      0.37500000000000      0.00000000000000 # Li45
    0.62500000000000      0.37500000000000      0.00000000000000 # Li46
    0.12500000000000      0.87500000000000      0.00000000000000 # Li47
    0.62500000000000      0.87500000000000      0.00000000000000 # Li48
    0.00000000000000      0.04202447002337      0.25000000000000 # Li49
    0.50000000000000      0.04202447002337      0.25000000000000 # Li50
    0.00000000000000      0.54202447002337      0.25000000000000 # Li51
    0.50000000000000      0.54202447002337      0.25000000000000 # Li52
    0.00000000000000      0.45797552247663      0.75000000000000 # Li53
    0.50000000000000      0.45797552247663      0.75000000000000 # Li54
    0.00000000000000      0.95797552247663      0.75000000000000 # Li55
    0.50000000000000      0.95797552247663      0.75000000000000 # Li56
    0.25000000000000      0.29202447752337      0.25000000000000 # Li57
    0.75000000000000      0.29202447752337      0.25000000000000 # Li58
    0.25000000000000      0.79202447752337      0.25000000000000 # Li59
    0.75000000000000      0.79202447752337      0.25000000000000 # Li60
    0.25000000000000      0.20797552247663      0.75000000000000 # Li61
    0.75000000000000      0.20797552247663      0.75000000000000 # Li62
    0.25000000000000      0.70797552247663      0.75000000000000 # Li63
    0.75000000000000      0.70797552247663      0.75000000000000 # Li64
    0.00000000000000      0.20859770281435      0.25000000000000 # Ti1
    0.50000000000000      0.20859770281435      0.25000000000000 # Ti2
    0.00000000000000      0.70859770281435      0.25000000000000 # Ti3
    0.50000000000000      0.70859770281435      0.25000000000000 # Ti4
    0.00000000000000      0.29140231218565      0.75000000000000 # Ti5
    0.50000000000000      0.29140231218565      0.75000000000000 # Ti6
    0.00000000000000      0.79140231218565      0.75000000000000 # Ti7
    0.50000000000000      0.79140231218565      0.75000000000000 # Ti8
    0.25000000000000      0.45859768781435      0.25000000000000 # Ti9
    0.75000000000000      0.45859768781435      0.25000000000000 # Ti10
    0.25000000000000      0.95859768781435      0.25000000000000 # Ti11
    0.75000000000000      0.95859768781435      0.25000000000000 # Ti12
    0.25000000000000      0.04140229718565      0.75000000000000 # Ti13
    0.75000000000000      0.04140229718565      0.75000000000000 # Ti14
    0.25000000000000      0.54140229718565      0.75000000000000 # Ti15
    0.75000000000000      0.54140229718565      0.75000000000000 # Ti16
    0.00000000000000      0.37478993333611      0.25000000000000 # Ti17
    0.50000000000000      0.37478993333611      0.25000000000000 # Ti18
    0.00000000000000      0.87478993333611      0.25000000000000 # Ti19
    0.50000000000000      0.87478993333611      0.25000000000000 # Ti20
    0.00000000000000      0.12521006666389      0.75000000000000 # Ti21
    0.50000000000000      0.12521006666389      0.75000000000000 # Ti22
    0.00000000000000      0.62521006666389      0.75000000000000 # Ti23
    0.50000000000000      0.62521006666389      0.75000000000000 # Ti24
    0.25000000000000      0.12478993333611      0.25000000000000 # Ti25
    0.75000000000000      0.12478993333611      0.25000000000000 # Ti26
    0.25000000000000      0.62478993333611      0.25000000000000 # Ti27
    0.75000000000000      0.62478993333611      0.25000000000000 # Ti28
    0.25000000000000      0.37521006666389      0.75000000000000 # Ti29
    0.75000000000000      0.37521006666389      0.75000000000000 # Ti30
    0.25000000000000      0.87521006666389      0.75000000000000 # Ti31
    0.75000000000000      0.87521006666389      0.75000000000000 # Ti32
    0.06991287627162      0.13130125003901      0.13607566224998 # O1
    0.56991287627162      0.13130125003901      0.13607566224998 # O2
    0.06991287627162      0.63130125003901      0.13607566224998 # O3
    0.56991287627162      0.63130125003901      0.13607566224998 # O4
    0.43008710922838      0.36869874996099      0.86392432375002 # O5
    0.93008710922838      0.36869874996099      0.86392432375002 # O6
    0.43008710922838      0.86869874996099      0.86392432375002 # O7
    0.93008710922838      0.86869874996099      0.86392432375002 # O8
    0.43008710922838      0.13130125003901      0.36392432375002 # O9
    0.93008710922838      0.13130125003901      0.36392432375002 # O10
    0.43008710922838      0.63130125003901      0.36392432375002 # O11
    0.93008710922838      0.63130125003901      0.36392432375002 # O12
    0.06991287627162      0.36869874996099      0.63607567624998 # O13
    0.56991287627162      0.36869874996099      0.63607567624998 # O14
    0.06991287627162      0.86869874996099      0.63607567624998 # O15
    0.56991287627162      0.86869874996099      0.63607567624998 # O16
    0.31991289077162      0.38130125003901      0.13607566224998 # O17
    0.81991289077162      0.38130125003901      0.13607566224998 # O18
    0.31991289077162      0.88130125003901      0.13607566224998 # O19
    0.81991289077162      0.88130125003901      0.13607566224998 # O20
    0.18008712372838      0.11869874996099      0.86392432375002 # O21
    0.68008712372838      0.11869874996099      0.86392432375002 # O22
    0.18008712372838      0.61869874996099      0.86392432375002 # O23
    0.68008712372838      0.61869874996099      0.86392432375002 # O24
    0.18008712372838      0.38130125003901      0.36392432375002 # O25
    0.68008712372838      0.38130125003901      0.36392432375002 # O26
    0.18008712372838      0.88130125003901      0.36392432375002 # O27
    0.68008712372838      0.88130125003901      0.36392432375002 # O28
    0.31991289077162      0.11869874996099      0.63607567624998 # O29
    0.81991289077162      0.11869874996099      0.63607567624998 # O30
    0.31991289077162      0.61869874996099      0.63607567624998 # O31
    0.81991289077162      0.61869874996099      0.63607567624998 # O32
    0.05307448049062      0.29198139902615      0.13626122868307 # O33
    0.55307448049062      0.29198139902615      0.13626122868307 # O34
    0.05307448049062      0.79198139902615      0.13626122868307 # O35
    0.55307448049062      0.79198139902615      0.13626122868307 # O36
    0.44692551950938      0.20801860097385      0.86373875731693 # O37
    0.94692551950938      0.20801860097385      0.86373875731693 # O38
    0.44692551950938      0.70801860097385      0.86373875731693 # O39
    0.94692551950938      0.70801860097385      0.86373875731693 # O40
    0.44692551950938      0.29198139902615      0.36373875731693 # O41
    0.94692551950938      0.29198139902615      0.36373875731693 # O42
    0.44692551950938      0.79198139902615      0.36373875731693 # O43
    0.94692551950938      0.79198139902615      0.36373875731693 # O44
    0.05307448049062      0.20801860097385      0.63626124268307 # O45
    0.55307448049062      0.20801860097385      0.63626124268307 # O46
    0.05307448049062      0.70801860097385      0.63626124268307 # O47
    0.55307448049062      0.70801860097385      0.63626124268307 # O48
    0.30307448049062      0.04198139902615      0.13626122868307 # O49
    0.80307448049062      0.04198139902615      0.13626122868307 # O50
    0.30307448049062      0.54198139902615      0.13626122868307 # O51
    0.80307448049062      0.54198139902615      0.13626122868307 # O52
    0.19692551950938      0.45801860097385      0.86373875731693 # O53
    0.69692551950938      0.45801860097385      0.86373875731693 # O54
    0.19692551950938      0.95801860097385      0.86373875731693 # O55
    0.69692551950938      0.95801860097385      0.86373875731693 # O56
    0.19692551950938      0.04198139902615      0.36373875731693 # O57
    0.69692551950938      0.04198139902615      0.36373875731693 # O58
    0.19692551950938      0.54198139902615      0.36373875731693 # O59
    0.69692551950938      0.54198139902615      0.36373875731693 # O60
    0.30307448049062      0.45801860097385      0.63626124268307 # O61
    0.80307448049062      0.45801860097385      0.63626124268307 # O62
    0.30307448049062      0.95801860097385      0.63626124268307 # O63
    0.80307448049062      0.95801860097385      0.63626124268307 # O64
    0.06928147280973      0.45295752666690      0.13373527653702 # O65
    0.56928147280973      0.45295752666690      0.13373527653702 # O66
    0.06928147280973      0.95295752666690      0.13373527653702 # O67
    0.56928147280973      0.95295752666690      0.13373527653702 # O68
    0.43071852019027      0.04704247333310      0.86626473846299 # O69
    0.93071852019027      0.04704247333310      0.86626473846299 # O70
    0.43071852019027      0.54704247333310      0.86626473846299 # O71
    0.93071852019027      0.54704247333310      0.86626473846299 # O72
    0.43071852019027      0.45295752666690      0.36626473846298 # O73
    0.93071852019027      0.45295752666690      0.36626473846298 # O74
    0.43071852019027      0.95295752666690      0.36626473846298 # O75
    0.93071852019027      0.95295752666690      0.36626473846298 # O76
    0.06928147280973      0.04704247333310      0.63373526153701 # O77
    0.56928147280973      0.04704247333310      0.63373526153701 # O78
    0.06928147280973      0.54704247333310      0.63373526153701 # O79
    0.56928147280973      0.54704247333310      0.63373526153701 # O80
    0.31928147980973      0.20295752666690      0.13373527653702 # O81
    0.81928147980973      0.20295752666690      0.13373527653702 # O82
    0.31928147980973      0.70295752666690      0.13373527653702 # O83
    0.81928147980973      0.70295752666690      0.13373527653702 # O84
    0.18071852019027      0.29704247333310      0.86626473846299 # O85
    0.68071852019027      0.29704247333310      0.86626473846299 # O86
    0.18071852019027      0.79704247333310      0.86626473846299 # O87
    0.68071852019027      0.79704247333310      0.86626473846299 # O88
    0.18071852019027      0.20295752666690      0.36626473846298 # O89
    0.68071852019027      0.20295752666690      0.36626473846298 # O90
    0.18071852019027      0.70295752666690      0.36626473846298 # O91
    0.68071852019027      0.70295752666690      0.36626473846298 # O92
    0.31928147980973      0.29704247333310      0.63373526153701 # O93
    0.81928147980973      0.29704247333310      0.63373526153701 # O94
    0.31928147980973      0.79704247333310      0.63373526153701 # O95
    0.81928147980973      0.79704247333310      0.63373526153701 # O96
