# algorithm
ALGO  =  N

# accuracy
PREC    =  N
LREAL   =  False
LASPH   =  True
NELM    =  100
NELMIN  =  2
EDIFF   =  1e-06

# ionic relaxation
ISIF    =   0
EDIFFG  =  -0.003
IBRION  =   8
NSW     =   1

# occupation
ISMEAR  =  0
SIGMA   =  0.1

# IO control
LWAVE   =  True
LCHARG  =  False

# dielectric
LEPSILON  =  True

# dft parameter
GGA  =  Ps

# parallel
KPAR  =  4

