Mg1 Al2 Se4                             
   1.00000000000000     
     1.9365079999999999    1.1180429999999999   12.9884249999999994
    -1.9365079999999999    1.1180429999999999   12.9884249999999994
     0.0000000000000000   -2.2360869999999999   12.9884249999999994
   Mg   Al   Se
     1     2     4
Direct
  0.5000000000000000  0.5000000000000000  0.5000000000000000
  0.7378860000000032  0.7378860000000032  0.7378860000000032
  0.2621139999999968  0.2621139999999968  0.2621139999999968
  0.2031690000000026  0.2031690000000026  0.2031690000000026
  0.7968309999999974  0.7968309999999974  0.7968309999999974
  0.6230189999999993  0.6230189999999993  0.6230189999999993
  0.3769810000000007  0.3769810000000007  0.3769810000000007
 
  0.00000000E+00  0.00000000E+00  0.00000000E+00
  0.00000000E+00  0.00000000E+00  0.00000000E+00
  0.00000000E+00  0.00000000E+00  0.00000000E+00
  0.00000000E+00  0.00000000E+00  0.00000000E+00
  0.00000000E+00  0.00000000E+00  0.00000000E+00
  0.00000000E+00  0.00000000E+00  0.00000000E+00
  0.00000000E+00  0.00000000E+00  0.00000000E+00
