Mg32 O33                                
   1.00000000000000     
     8.4194560000000003    0.0000000000000000    0.0000000000000000
     0.0000000000000000    8.4194560000000003    0.0000000000000000
     0.0000000000000000    0.0000000000000000    8.4194560000000003
   Mg   O 
    32    33
Direct
  0.9961393143631980  0.9961393143631980  0.9961393143631980
  0.9971406131953842  0.9971406131953842  0.5042986727418750
  0.9971406131953842  0.5042986727418750  0.9971406131953842
  0.0004014050746903  0.5010603517080128  0.5010603517080128
  0.5042986727418750  0.9971406131953842  0.9971406131953842
  0.5010603517080128  0.0004014050746903  0.5010603517080128
  0.5010603517080128  0.5010603517080128  0.0004014050746903
  0.4999514022549931  0.4999514022549931  0.4999514022549931
  0.9961393143631980  0.2538606856368020  0.2538606856368020
  0.9971406131953842  0.2528593868046158  0.7457013272581250
  0.9971406131953842  0.7457013272581250  0.2528593868046158
  0.0004014050746903  0.7489396482919872  0.7489396482919872
  0.5042986727418750  0.2528593868046158  0.2528593868046158
  0.5010603517080128  0.2495985949253097  0.7489396482919872
  0.5010603517080128  0.7489396482919872  0.2495985949253097
  0.4999514022549931  0.7500485977450069  0.7500485977450069
  0.2538606856368020  0.9961393143631980  0.2538606856368020
  0.2528593868046158  0.9971406131953842  0.7457013272581250
  0.2528593868046158  0.5042986727418750  0.2528593868046158
  0.2495985949253097  0.5010603517080128  0.7489396482919872
  0.7457013272581250  0.9971406131953842  0.2528593868046158
  0.7489396482919872  0.0004014050746903  0.7489396482919872
  0.7489396482919872  0.5010603517080128  0.2495985949253097
  0.7500485977450069  0.4999514022549931  0.7500485977450069
  0.2538606856368020  0.2538606856368020  0.9961393143631980
  0.2528593868046158  0.2528593868046158  0.5042986727418750
  0.2528593868046158  0.7457013272581250  0.9971406131953842
  0.2495985949253097  0.7489396482919872  0.5010603517080128
  0.7457013272581250  0.2528593868046158  0.9971406131953842
  0.7489396482919872  0.2495985949253097  0.5010603517080128
  0.7489396482919872  0.7489396482919872  0.0004014050746903
  0.7500485977450069  0.7500485977450069  0.4999514022549931
  0.1250000000000000  0.1250000000000000  0.1250000000000000
  0.2766963001931089  0.9733036998068911  0.9733036998068911
  0.2505970197854523  0.9994029802145477  0.5006429364090224
  0.2505970197854523  0.5006429364090224  0.9994029802145477
  0.2503870520307032  0.5045046084131855  0.5045046084131855
  0.7493570635909776  0.9994029802145477  0.9994029802145477
  0.7454953915868145  0.9996129479692968  0.5045046084131855
  0.7454953915868145  0.5045046084131855  0.9996129479692968
  0.7500192072853551  0.4999807927146449  0.4999807927146449
  0.2766963001931089  0.2766963001931089  0.2766963001931089
  0.2505970197854523  0.2505970197854523  0.7493570635909776
  0.2505970197854523  0.7493570635909776  0.2505970197854523
  0.2503870520307032  0.7454953915868145  0.7454953915868145
  0.7493570635909776  0.2505970197854523  0.2505970197854523
  0.7454953915868145  0.2503870520307032  0.7454953915868145
  0.7454953915868145  0.7454953915868145  0.2503870520307032
  0.7500192072853551  0.7500192072853551  0.7500192072853551
  0.9733036998068911  0.9733036998068911  0.2766963001931089
  0.9994029802145477  0.9994029802145477  0.7493570635909776
  0.9994029802145477  0.5006429364090224  0.2505970197854523
  0.9996129479692968  0.5045046084131855  0.7454953915868145
  0.5006429364090224  0.9994029802145477  0.2505970197854523
  0.5045046084131855  0.9996129479692968  0.7454953915868145
  0.5045046084131855  0.5045046084131855  0.2503870520307032
  0.4999807927146449  0.4999807927146449  0.7500192072853551
  0.9733036998068911  0.2766963001931089  0.9733036998068911
  0.9994029802145477  0.2505970197854523  0.5006429364090224
  0.9994029802145477  0.7493570635909776  0.9994029802145477
  0.9996129479692968  0.7454953915868145  0.5045046084131855
  0.5006429364090224  0.2505970197854523  0.9994029802145477
  0.5045046084131855  0.2503870520307032  0.5045046084131855
  0.5045046084131855  0.7454953915868145  0.9996129479692968
  0.4999807927146449  0.7500192072853551  0.4999807927146449
 
  0.00000000E+00  0.00000000E+00  0.00000000E+00
  0.00000000E+00  0.00000000E+00  0.00000000E+00
  0.00000000E+00  0.00000000E+00  0.00000000E+00
  0.00000000E+00  0.00000000E+00  0.00000000E+00
  0.00000000E+00  0.00000000E+00  0.00000000E+00
  0.00000000E+00  0.00000000E+00  0.00000000E+00
  0.00000000E+00  0.00000000E+00  0.00000000E+00
  0.00000000E+00  0.00000000E+00  0.00000000E+00
  0.00000000E+00  0.00000000E+00  0.00000000E+00
  0.00000000E+00  0.00000000E+00  0.00000000E+00
  0.00000000E+00  0.00000000E+00  0.00000000E+00
  0.00000000E+00  0.00000000E+00  0.00000000E+00
  0.00000000E+00  0.00000000E+00  0.00000000E+00
  0.00000000E+00  0.00000000E+00  0.00000000E+00
  0.00000000E+00  0.00000000E+00  0.00000000E+00
  0.00000000E+00  0.00000000E+00  0.00000000E+00
  0.00000000E+00  0.00000000E+00  0.00000000E+00
  0.00000000E+00  0.00000000E+00  0.00000000E+00
  0.00000000E+00  0.00000000E+00  0.00000000E+00
  0.00000000E+00  0.00000000E+00  0.00000000E+00
  0.00000000E+00  0.00000000E+00  0.00000000E+00
  0.00000000E+00  0.00000000E+00  0.00000000E+00
  0.00000000E+00  0.00000000E+00  0.00000000E+00
  0.00000000E+00  0.00000000E+00  0.00000000E+00
  0.00000000E+00  0.00000000E+00  0.00000000E+00
  0.00000000E+00  0.00000000E+00  0.00000000E+00
  0.00000000E+00  0.00000000E+00  0.00000000E+00
  0.00000000E+00  0.00000000E+00  0.00000000E+00
  0.00000000E+00  0.00000000E+00  0.00000000E+00
  0.00000000E+00  0.00000000E+00  0.00000000E+00
  0.00000000E+00  0.00000000E+00  0.00000000E+00
  0.00000000E+00  0.00000000E+00  0.00000000E+00
  0.00000000E+00  0.00000000E+00  0.00000000E+00
  0.00000000E+00  0.00000000E+00  0.00000000E+00
  0.00000000E+00  0.00000000E+00  0.00000000E+00
  0.00000000E+00  0.00000000E+00  0.00000000E+00
  0.00000000E+00  0.00000000E+00  0.00000000E+00
  0.00000000E+00  0.00000000E+00  0.00000000E+00
  0.00000000E+00  0.00000000E+00  0.00000000E+00
  0.00000000E+00  0.00000000E+00  0.00000000E+00
  0.00000000E+00  0.00000000E+00  0.00000000E+00
  0.00000000E+00  0.00000000E+00  0.00000000E+00
  0.00000000E+00  0.00000000E+00  0.00000000E+00
  0.00000000E+00  0.00000000E+00  0.00000000E+00
  0.00000000E+00  0.00000000E+00  0.00000000E+00
  0.00000000E+00  0.00000000E+00  0.00000000E+00
  0.00000000E+00  0.00000000E+00  0.00000000E+00
  0.00000000E+00  0.00000000E+00  0.00000000E+00
  0.00000000E+00  0.00000000E+00  0.00000000E+00
  0.00000000E+00  0.00000000E+00  0.00000000E+00
  0.00000000E+00  0.00000000E+00  0.00000000E+00
  0.00000000E+00  0.00000000E+00  0.00000000E+00
  0.00000000E+00  0.00000000E+00  0.00000000E+00
  0.00000000E+00  0.00000000E+00  0.00000000E+00
  0.00000000E+00  0.00000000E+00  0.00000000E+00
  0.00000000E+00  0.00000000E+00  0.00000000E+00
  0.00000000E+00  0.00000000E+00  0.00000000E+00
  0.00000000E+00  0.00000000E+00  0.00000000E+00
  0.00000000E+00  0.00000000E+00  0.00000000E+00
  0.00000000E+00  0.00000000E+00  0.00000000E+00
  0.00000000E+00  0.00000000E+00  0.00000000E+00
  0.00000000E+00  0.00000000E+00  0.00000000E+00
  0.00000000E+00  0.00000000E+00  0.00000000E+00
  0.00000000E+00  0.00000000E+00  0.00000000E+00
  0.00000000E+00  0.00000000E+00  0.00000000E+00
