Generated by ASE. length = ( [16.46245025333885, 20.11645725990898, 20.34247723218201] ), angle=( 90.01854881254914, 90.00403264047026, 93.63214401970201 ), natom= 352
1.0
16.462425 -0.028932 0.001128
3.496056 10.031896 -0.000962
4.114190 -0.009359 10.171520
K B S O Cl
4 4 16 48 16
direct
0.234253 0.402413 0.929706 K
0.734253 0.402413 0.929706 K
0.318387 0.902515 0.594418 K
0.818387 0.902515 0.594418 K
0.499164 0.000771 0.000271 B
0.999164 0.000771 0.000271 B
0.118553 0.500603 0.523634 B
0.618553 0.500603 0.523634 B
0.364889 0.940755 0.208389 S
0.864889 0.940755 0.208389 S
0.034192 0.211966 0.059416 S
0.534192 0.211966 0.059416 S
0.435628 0.051493 0.799168 S
0.935628 0.051493 0.799168 S
0.158272 0.799142 0.944034 S
0.658272 0.799142 0.944034 S
0.087474 0.440828 0.316335 S
0.587474 0.440828 0.316335 S
0.183860 0.710921 0.464465 S
0.683860 0.710921 0.464465 S
0.454163 0.550928 0.724184 S
0.954163 0.550928 0.724184 S
0.249262 0.298675 0.580074 S
0.749262 0.298675 0.580074 S
0.413567 0.037082 0.114638 O
0.913567 0.037082 0.114638 O
0.384310 0.925044 0.327272 O
0.884310 0.925044 0.327272 O
0.377286 0.825799 0.139836 O
0.877286 0.825799 0.139836 O
0.032039 0.118292 0.963264 O
0.532039 0.118292 0.963264 O
0.094758 0.286065 0.982231 O
0.594758 0.286065 0.982231 O
0.045153 0.142910 0.175250 O
0.545153 0.142910 0.175250 O
0.488590 0.960349 0.883834 O
0.988590 0.960349 0.883834 O
0.415231 0.967737 0.729481 O
0.915231 0.967737 0.729481 O
0.363360 0.160969 0.875687 O
0.863360 0.160969 0.875687 O
0.063765 0.883802 0.037706 O
0.563765 0.883802 0.037706 O
0.195769 0.876826 0.833907 O
0.695769 0.876826 0.833907 O
0.152711 0.672391 0.922512 O
0.652711 0.672391 0.922512 O
0.090217 0.537289 0.409193 O
0.590217 0.537289 0.409193 O
0.165856 0.424912 0.196631 O
0.665856 0.424912 0.196631 O
0.065734 0.326065 0.385387 O
0.565734 0.326065 0.385387 O
0.133107 0.617852 0.560743 O
0.633107 0.617852 0.560743 O
0.206284 0.784433 0.541531 O
0.706284 0.784433 0.541531 O
0.252490 0.641775 0.348448 O
0.752490 0.641775 0.348448 O
0.049556 0.460033 0.639494 O
0.549556 0.460033 0.639494 O
0.399198 0.466773 0.793441 O
0.899198 0.466773 0.793441 O
0.420057 0.660451 0.648000 O
0.920057 0.660451 0.648000 O
0.201824 0.383391 0.486163 O
0.701824 0.383391 0.486163 O
0.231871 0.376401 0.690133 O
0.731871 0.376401 0.690133 O
0.232620 0.172136 0.602069 O
0.732620 0.172136 0.602069 O
0.234021 0.059134 0.251577 Cl
0.734021 0.059134 0.251577 Cl
0.404994 0.342300 0.113912 Cl
0.904994 0.342300 0.113912 Cl
0.031560 0.125773 0.666353 Cl
0.531560 0.125773 0.666353 Cl
0.232001 0.767578 0.060703 Cl
0.732001 0.767578 0.060703 Cl
0.477713 0.559202 0.274475 Cl
0.977713 0.559202 0.274475 Cl
0.081903 0.841868 0.410784 Cl
0.581903 0.841868 0.410784 Cl
0.482988 0.624912 0.857817 Cl
0.982988 0.624912 0.857817 Cl
0.381371 0.266548 0.463635 Cl
0.881371 0.266548 0.463635 Cl

0.000000 0.000000 0.000000
0.000000 0.000000 0.000000
0.000000 0.000000 0.000000
0.000000 0.000000 0.000000
0.000000 0.000000 0.000000
0.000000 0.000000 0.000000
0.000000 0.000000 0.000000
0.000000 0.000000 0.000000
0.000000 0.000000 0.000000
0.000000 0.000000 0.000000
0.000000 0.000000 0.000000
0.000000 0.000000 0.000000
0.000000 0.000000 0.000000
0.000000 0.000000 0.000000
0.000000 0.000000 0.000000
0.000000 0.000000 0.000000
0.000000 0.000000 0.000000
0.000000 0.000000 0.000000
0.000000 0.000000 0.000000
0.000000 0.000000 0.000000
0.000000 0.000000 0.000000
0.000000 0.000000 0.000000
0.000000 0.000000 0.000000
0.000000 0.000000 0.000000
0.000000 0.000000 0.000000
0.000000 0.000000 0.000000
0.000000 0.000000 0.000000
0.000000 0.000000 0.000000
0.000000 0.000000 0.000000
0.000000 0.000000 0.000000
0.000000 0.000000 0.000000
0.000000 0.000000 0.000000
0.000000 0.000000 0.000000
0.000000 0.000000 0.000000
0.000000 0.000000 0.000000
0.000000 0.000000 0.000000
0.000000 0.000000 0.000000
0.000000 0.000000 0.000000
0.000000 0.000000 0.000000
0.000000 0.000000 0.000000
0.000000 0.000000 0.000000
0.000000 0.000000 0.000000
0.000000 0.000000 0.000000
0.000000 0.000000 0.000000
0.000000 0.000000 0.000000
0.000000 0.000000 0.000000
0.000000 0.000000 0.000000
0.000000 0.000000 0.000000
0.000000 0.000000 0.000000
0.000000 0.000000 0.000000
0.000000 0.000000 0.000000
0.000000 0.000000 0.000000
0.000000 0.000000 0.000000
0.000000 0.000000 0.000000
0.000000 0.000000 0.000000
0.000000 0.000000 0.000000
0.000000 0.000000 0.000000
0.000000 0.000000 0.000000
0.000000 0.000000 0.000000
0.000000 0.000000 0.000000
0.000000 0.000000 0.000000
0.000000 0.000000 0.000000
0.000000 0.000000 0.000000
0.000000 0.000000 0.000000
0.000000 0.000000 0.000000
0.000000 0.000000 0.000000
0.000000 0.000000 0.000000
0.000000 0.000000 0.000000
0.000000 0.000000 0.000000
0.000000 0.000000 0.000000
0.000000 0.000000 0.000000
0.000000 0.000000 0.000000
0.000000 0.000000 0.000000
0.000000 0.000000 0.000000
0.000000 0.000000 0.000000
0.000000 0.000000 0.000000
0.000000 0.000000 0.000000
0.000000 0.000000 0.000000
0.000000 0.000000 0.000000
0.000000 0.000000 0.000000
0.000000 0.000000 0.000000
0.000000 0.000000 0.000000
0.000000 0.000000 0.000000
0.000000 0.000000 0.000000
0.000000 0.000000 0.000000
0.000000 0.000000 0.000000
0.000000 0.000000 0.000000
0.000000 0.000000 0.000000
