Generated by ASE. length = ( [16.46245025333885, 20.11645725990898, 20.34247723218201] ), angle=( 90.01854881254914, 90.00403264047026, 93.63214401970201 ), natom= 352
 1.0000000000000000
    16.4624247914728983   -0.0289319354401632    0.0011277705994698
    -1.2391012550446501   20.0782587536717188   -0.0024879904508461
    -0.0028328133647033   -0.0042522509360492   20.3424765905081912
  16  64  16 192  64
Direct
  0.6246121689340054  0.2503014381533362  0.7618169833605711
  0.7494248013328341  0.5003852868808033  0.0001357151187093
  0.6246121689340054  0.7503014381533362  0.2618169833605712
  0.2494248013328343  0.0003852868808032  0.5001357151187092
  0.1246121689340054  0.2503014381533362  0.7618169833605712
  0.8746121689340052  0.7503014381533361  0.7618169833605711
  0.4994248013328345  0.5003852868808032  0.5001357151187092
  0.9994248013328345  0.5003852868808032  0.5001357151187092
  0.7494248013328343  0.0003852868808032  0.5001357151187092
  0.3746121689340055  0.7503014381533361  0.7618169833605712
  0.2494248013328343  0.5003852868808033  0.0001357151187093
  0.8746121689340053  0.2503014381533361  0.2618169833605713
  0.9994248013328344  0.0003852868808032  0.0001357151187093
  0.4994248013328343  0.0003852868808032  0.0001357151187093
  0.3746121689340053  0.2503014381533361  0.2618169833605712
  0.1246121689340056  0.7503014381533362  0.2618169833605712
  0.3950658594500479  0.9209338396080148  0.7053919180685211
  0.6861315413789520  0.7796007710385593  0.6372372770887934
  0.4390709407305239  0.8837890935588602  0.5303513740864645
  0.8536703708529456  0.8124561822509334  0.9289084282353881
  0.2295916280021686  0.5628862929279634  0.8331766935853722
  0.5190469370285860  0.6711500771140777  0.5569558511289719
  0.3116988997011028  0.5295668083236754  0.6257882649848162
  0.5639170264357550  0.6332739025848182  0.7318174812338504
  0.6036703708529457  0.8124561822509336  0.4289084282353882
  0.3116988997011027  0.0295668083236756  0.1257882649848163
  0.1450658594500477  0.9209338396080148  0.2053919180685213
  0.4361315413789519  0.7796007710385594  0.1372372770887935
  0.1890709407305237  0.8837890935588603  0.0303513740864645
  0.2690469370285858  0.6711500771140777  0.0569558511289721
  0.0616988997011029  0.5295668083236755  0.1257882649848163
  0.3139170264357549  0.1332739025848184  0.7318174812338504
  0.6036703708529457  0.3124561822509335  0.9289084282353881
  0.1450658594500477  0.4209338396080149  0.7053919180685211
  0.4361315413789519  0.2796007710385596  0.6372372770887934
  0.1890709407305237  0.3837890935588603  0.5303513740864645
  0.3139170264357549  0.6332739025848183  0.2318174812338505
  0.5190469370285858  0.1711500771140776  0.0569558511289721
  0.3950658594500478  0.4209338396080148  0.2053919180685213
  0.4390709407305238  0.3837890935588602  0.0303513740864645
  0.9795916280021688  0.0628862929279635  0.8331766935853719
  0.8950658594500476  0.4209338396080149  0.2053919180685213
  0.9390709407305234  0.3837890935588603  0.0303513740864645
  0.7295916280021685  0.0628862929279635  0.3331766935853722
  0.8116988997011028  0.0295668083236756  0.1257882649848163
  0.8950658594500477  0.9209338396080146  0.7053919180685212
  0.9390709407305237  0.8837890935588599  0.5303513740864645
  0.7295916280021684  0.5628862929279634  0.8331766935853722
  0.8116988997011024  0.5295668083236754  0.6257882649848162
  0.8139170264357546  0.6332739025848183  0.2318174812338504
  0.6450658594500477  0.9209338396080146  0.2053919180685212
  0.9361315413789518  0.7796007710385596  0.1372372770887935
  0.6890709407305237  0.8837890935588602  0.0303513740864645
  0.4795916280021685  0.5628862929279635  0.3331766935853721
  0.7690469370285857  0.6711500771140777  0.0569558511289721
  0.5616988997011026  0.5295668083236755  0.1257882649848163
  0.8139170264357549  0.1332739025848184  0.7318174812338504
  0.6450658594500478  0.4209338396080149  0.7053919180685212
  0.9361315413789520  0.2796007710385596  0.6372372770887934
  0.6890709407305237  0.3837890935588603  0.5303513740864645
  0.4795916280021685  0.0628862929279635  0.8331766935853719
  0.7690469370285856  0.1711500771140776  0.5569558511289721
  0.5616988997011026  0.0295668083236755  0.6257882649848163
  0.5639170264357549  0.1332739025848184  0.2318174812338505
  0.8536703708529459  0.3124561822509335  0.4289084282353882
  0.2690469370285858  0.1711500771140776  0.5569558511289719
  0.6861315413789520  0.2796007710385595  0.1372372770887935
  0.2295916280021685  0.0628862929279635  0.3331766935853722
  0.0616988997011027  0.0295668083236755  0.6257882649848162
  0.9795916280021686  0.5628862929279635  0.3331766935853722
  0.3536703708529458  0.3124561822509336  0.4289084282353881
  0.0190469370285860  0.6711500771140777  0.5569558511289721
  0.1036703708529457  0.8124561822509334  0.4289084282353882
  0.0639170264357551  0.6332739025848182  0.7318174812338504
  0.1861315413789521  0.7796007710385595  0.6372372770887934
  0.0639170264357550  0.1332739025848184  0.2318174812338505
  0.3536703708529458  0.8124561822509333  0.9289084282353880
  0.1861315413789520  0.2796007710385595  0.1372372770887935
  0.1036703708529459  0.3124561822509335  0.9289084282353883
  0.0190469370285858  0.1711500771140776  0.0569558511289721
  0.5672825816201374  0.2012065800716734  0.4648530684600977
  0.6926202400997354  0.4512576926853527  0.2972088827030390
  0.1926202400997355  0.9512576926853524  0.7972088827030388
  0.0672825816201376  0.7012065800716734  0.9648530684600978
  0.4426202400997353  0.9512576926853529  0.2972088827030390
  0.3172825816201374  0.7012065800716735  0.4648530684600977
  0.0672825816201375  0.2012065800716734  0.4648530684600977
  0.5672825816201376  0.7012065800716735  0.9648530684600977
  0.8172825816201373  0.2012065800716735  0.9648530684600977
  0.8172825816201372  0.7012065800716735  0.4648530684600977
  0.9426202400997353  0.9512576926853527  0.2972088827030389
  0.4426202400997353  0.4512576926853528  0.7972088827030388
  0.3172825816201374  0.2012065800716735  0.9648530684600978
  0.6926202400997354  0.9512576926853527  0.7972088827030388
  0.9426202400997351  0.4512576926853527  0.7972088827030387
  0.1926202400997354  0.4512576926853527  0.2972088827030390
  0.6692121913581238  0.1916955993350733  0.7430813266864681
  0.7485044603578037  0.1882005877930198  0.8450665834257264
  0.6761711168006439  0.0860678132606233  0.8010344915831239
  0.9971695477577107  0.3302254623478333  0.8239999775461869
  0.9642516737498941  0.2333867384156356  0.8967206670794211
  0.5744375668382790  0.2300163539341682  0.8197470208590864
  0.2142516737498943  0.7333867384156354  0.8967206670794209
  0.7500456168420387  0.3208875329087456  0.6742242122386272
  0.0000456168420389  0.8208875329087456  0.6742242122386272
  0.0377754028678582  0.8922162537373736  0.7707656891247935
  0.0514370389216534  0.8361956307303015  0.9612557612680880
  0.1234524282379131  0.9384128140639836  0.9169532536745704
  0.7014964924912465  0.5185409339819919  0.0573188710634227
  0.2471695477577108  0.8302254623478333  0.8239999775461868
  0.7877754028678583  0.3922162537373736  0.7707656891247935
  0.5441419634086522  0.4419012260092394  0.5188529929367327
  0.4935968886215250  0.1630326971324116  0.6926934051022789
  0.2435968886215250  0.1630326971324116  0.1926934051022790
  0.4277555970734070  0.3089258308522745  0.2803716009016809
  0.5377754028678581  0.3922162537373737  0.2707656891247936
  0.5000456168420387  0.3208875329087455  0.1742242122386272
  0.3244375668382791  0.2300163539341681  0.3197470208590864
  0.7142516737498942  0.2333867384156357  0.3967206670794210
  0.7471695477577107  0.3302254623478333  0.3239999775461868
  0.4192121913581240  0.1916955993350733  0.2430813266864682
  0.5895354276752991  0.4838682720486531  0.8647404508152582
  0.4261711168006438  0.0860678132606232  0.3010344915831240
  0.4496356606376625  0.4801744292650341  0.4419171501200232
  0.1186952726675513  0.4128995382142834  0.0699180831948993
  0.1973888918718368  0.4625220552756061  0.1636362150821959
  0.7014964924912466  0.0185409339819919  0.5573188710634226
  0.9473888918718367  0.4625220552756060  0.6636362150821958
  0.8686952726675512  0.4128995382142833  0.5699180831948992
  0.5524278074770326  0.0591459129595897  0.9816320458747895
  0.6618321553854916  0.1430323703773695  0.9911153010017378
  0.3746925741687921  0.0714549608901542  0.5876248900518773
  0.8725234839675281  0.0804846441130458  0.9378432725312464
  0.9473888918718369  0.9625220552756061  0.1636362150821959
  0.8734524282379130  0.4384128140639838  0.9169532536745704
  0.8014370389216533  0.3361956307303018  0.9612557612680880
  0.5768369377441794  0.2686442740125763  0.7045963584643608
  0.5712423677517398  0.2124562086125010  0.5983155513304439
  0.6777555970734069  0.3089258308522744  0.7803716009016809
  0.8686952726675515  0.9128995382142834  0.0699180831948993
  0.3725234839675282  0.0804846441130458  0.9378432725312464
  0.6618321553854917  0.6430323703773695  0.4911153010017378
  0.7435968886215250  0.6630326971324114  0.6926934051022789
  0.9277555970734070  0.8089258308522744  0.7803716009016809
  0.8244375668382786  0.7300163539341681  0.8197470208590864
  0.9192121913581238  0.6916955993350732  0.7430813266864681
  0.9985044603578039  0.6882005877930196  0.8450665834257264
  0.9261711168006440  0.5860678132606232  0.8010344915831239
  0.0895354276752994  0.9838682720486531  0.3647404508152582
  0.9514964924912467  0.0185409339819920  0.0573188710634227
  0.8024278074770325  0.0591459129595897  0.4816320458747894
  0.9118321553854914  0.1430323703773695  0.4911153010017377
  0.6246925741687921  0.0714549608901543  0.0876248900518774
  0.7941419634086521  0.4419012260092393  0.0188529929367327
  0.8212423677517395  0.7124562086125007  0.5983155513304439
  0.8268369377441792  0.2686442740125763  0.2045963584643609
  0.7435968886215251  0.1630326971324116  0.1926934051022790
  0.9277555970734069  0.3089258308522745  0.2803716009016809
  0.8244375668382791  0.2300163539341681  0.3197470208590864
  0.9192121913581236  0.1916955993350733  0.2430813266864682
  0.9985044603578037  0.1882005877930197  0.3450665834257265
  0.9261711168006440  0.0860678132606232  0.3010344915831241
  0.1996356606376626  0.9801744292650338  0.4419171501200232
  0.0895354276752994  0.4838682720486531  0.8647404508152582
  0.8746925741687922  0.0714549608901542  0.5876248900518773
  0.9935968886215251  0.1630326971324116  0.6926934051022788
  0.1996356606376624  0.4801744292650340  0.9419171501200232
  0.8746925741687921  0.5714549608901542  0.0876248900518774
  0.8212423677517399  0.2124562086125010  0.0983155513304439
  0.5524278074770326  0.5591459129595896  0.4816320458747895
  0.8268369377441793  0.7686442740125762  0.7045963584643608
  0.6246925741687920  0.5714549608901541  0.5876248900518773
  0.3746925741687921  0.5714549608901542  0.0876248900518774
  0.8725234839675280  0.5804846441130458  0.4378432725312464
  0.5441419634086521  0.9419012260092395  0.0188529929367327
  0.3212423677517399  0.2124562086125010  0.0983155513304439
  0.8734524282379131  0.9384128140639836  0.4169532536745705
  0.8014370389216534  0.8361956307303015  0.4612557612680879
  0.5768369377441793  0.7686442740125763  0.2045963584643608
  0.5712423677517399  0.7124562086125008  0.0983155513304439
  0.4935968886215250  0.6630326971324115  0.1926934051022790
  0.6777555970734070  0.8089258308522744  0.2803716009016809
  0.7877754028678580  0.8922162537373736  0.2707656891247936
  0.7500456168420386  0.8208875329087455  0.1742242122386272
  0.7941419634086521  0.9419012260092393  0.5188529929367327
  0.5744375668382790  0.7300163539341682  0.3197470208590864
  0.9971695477577105  0.8302254623478332  0.3239999775461868
  0.6692121913581238  0.6916955993350732  0.2430813266864682
  0.7485044603578039  0.6882005877930197  0.3450665834257265
  0.6761711168006439  0.5860678132606232  0.3010344915831240
  0.1225234839675284  0.5804846441130457  0.9378432725312462
  0.3395354276752993  0.9838682720486531  0.8647404508152582
  0.4496356606376626  0.9801744292650338  0.9419171501200231
  0.1186952726675514  0.9128995382142832  0.5699180831948992
  0.1973888918718369  0.9625220552756059  0.6636362150821958
  0.9514964924912463  0.5185409339819919  0.5573188710634226
  0.8024278074770325  0.5591459129595896  0.9816320458747892
  0.9118321553854916  0.6430323703773694  0.9911153010017378
  0.9642516737498940  0.7333867384156356  0.3967206670794210
  0.3268369377441793  0.2686442740125763  0.2045963584643609
  0.4985044603578040  0.1882005877930197  0.3450665834257265
  0.6234524282379130  0.4384128140639837  0.4169532536745705
  0.3686952726675513  0.4128995382142835  0.5699180831948992
  0.0524278074770326  0.0591459129595897  0.9816320458747892
  0.4514964924912467  0.5185409339819919  0.5573188710634226
  0.6973888918718368  0.9625220552756061  0.6636362150821958
  0.6186952726675514  0.9128995382142834  0.5699180831948992
  0.3024278074770327  0.5591459129595896  0.9816320458747895
  0.4118321553854917  0.6430323703773693  0.9911153010017376
  0.1246925741687922  0.5714549608901540  0.5876248900518773
  0.4473888918718368  0.4625220552756061  0.6636362150821958
  0.9496356606376625  0.9801744292650340  0.9419171501200232
  0.6225234839675283  0.5804846441130458  0.9378432725312462
  0.2941419634086523  0.9419012260092391  0.5188529929367326
  0.6996356606376626  0.9801744292650340  0.4419171501200232
  0.5514370389216534  0.8361956307303017  0.9612557612680880
  0.3268369377441794  0.7686442740125762  0.7045963584643608
  0.3212423677517400  0.7124562086125009  0.5983155513304439
  0.2435968886215251  0.6630326971324114  0.6926934051022789
  0.4277555970734071  0.8089258308522743  0.7803716009016809
  0.8395354276752992  0.9838682720486529  0.8647404508152580
  0.2014964924912466  0.0185409339819919  0.5573188710634226
  0.5514370389216533  0.3361956307303018  0.4612557612680879
  0.1761711168006440  0.5860678132606232  0.3010344915831240
  0.1618321553854916  0.6430323703773693  0.4911153010017377
  0.0524278074770326  0.5591459129595896  0.4816320458747895
  0.3686952726675515  0.9128995382142836  0.0699180831948993
  0.4473888918718370  0.9625220552756062  0.1636362150821959
  0.2014964924912466  0.5185409339819919  0.0573188710634227
  0.3725234839675284  0.5804846441130457  0.4378432725312464
  0.0441419634086522  0.9419012260092393  0.0188529929367327
  0.3734524282379132  0.9384128140639838  0.4169532536745705
  0.3014370389216535  0.8361956307303017  0.4612557612680879
  0.0768369377441793  0.7686442740125763  0.2045963584643609
  0.0712423677517400  0.7124562086125010  0.0983155513304439
  0.1777555970734072  0.8089258308522743  0.2803716009016810
  0.2877754028678580  0.8922162537373735  0.2707656891247936
  0.2500456168420389  0.8208875329087453  0.1742242122386272
  0.0744375668382792  0.7300163539341682  0.3197470208590864
  0.4642516737498942  0.7333867384156355  0.3967206670794210
  0.4971695477577106  0.8302254623478333  0.3239999775461868
  0.1692121913581239  0.6916955993350732  0.2430813266864682
  0.2485044603578039  0.6882005877930197  0.3450665834257265
  0.5377754028678582  0.8922162537373735  0.7707656891247935
  0.5000456168420389  0.8208875329087455  0.6742242122386272
  0.6234524282379132  0.9384128140639838  0.9169532536745705
  0.7142516737498943  0.7333867384156354  0.8967206670794211
  0.2500456168420387  0.3208875329087454  0.6742242122386272
  0.2877754028678581  0.3922162537373736  0.7707656891247935
  0.1777555970734069  0.3089258308522744  0.7803716009016809
  0.0712423677517398  0.2124562086125010  0.5983155513304439
  0.0768369377441793  0.2686442740125763  0.7045963584643608
  0.3014370389216532  0.3361956307303018  0.9612557612680880
  0.3734524282379130  0.4384128140639838  0.9169532536745704
  0.0441419634086522  0.4419012260092394  0.5188529929367327
  0.3244375668382792  0.7300163539341681  0.8197470208590864
  0.4514964924912466  0.0185409339819920  0.0573188710634227
  0.6186952726675513  0.4128995382142834  0.0699180831948993
  0.3024278074770326  0.0591459129595897  0.4816320458747895
  0.4118321553854916  0.1430323703773695  0.4911153010017378
  0.1246925741687921  0.0714549608901543  0.0876248900518774
  0.9496356606376624  0.4801744292650339  0.4419171501200234
  0.8395354276752992  0.4838682720486532  0.3647404508152582
  0.6225234839675282  0.0804846441130458  0.4378432725312464
  0.2941419634086522  0.4419012260092395  0.0188529929367327
  0.6973888918718368  0.4625220552756061  0.1636362150821959
  0.0744375668382790  0.2300163539341682  0.8197470208590861
  0.5895354276752993  0.9838682720486529  0.3647404508152582
  0.6996356606376624  0.4801744292650340  0.9419171501200232
  0.1225234839675283  0.0804846441130458  0.4378432725312464
  0.4642516737498942  0.2333867384156355  0.8967206670794209
  0.1761711168006438  0.0860678132606233  0.8010344915831239
  0.2485044603578039  0.1882005877930197  0.8450665834257266
  0.9935968886215251  0.6630326971324115  0.1926934051022790
  0.1234524282379131  0.4384128140639839  0.4169532536745705
  0.0514370389216533  0.3361956307303018  0.4612557612680879
  0.0377754028678581  0.3922162537373737  0.2707656891247937
  0.1618321553854916  0.1430323703773695  0.9911153010017379
  0.0000456168420388  0.3208875329087455  0.1742242122386272
  0.1692121913581239  0.1916955993350733  0.7430813266864682
  0.4971695477577106  0.3302254623478335  0.8239999775461868
  0.2471695477577107  0.3302254623478333  0.3239999775461868
  0.4261711168006440  0.5860678132606232  0.8010344915831239
  0.4985044603578041  0.6882005877930196  0.8450665834257264
  0.4192121913581241  0.6916955993350732  0.7430813266864682
  0.7471695477577108  0.8302254623478336  0.8239999775461866
  0.2142516737498942  0.2333867384156356  0.3967206670794210
  0.3395354276752992  0.4838682720486530  0.3647404508152582
  0.2189488472881465  0.6493373911993209  0.2900371825921475
  0.8520380507959011  0.6059829748348591  0.0297081348302939
  0.9689488472881462  0.1493373911993210  0.2900371825921475
  0.0229406479440824  0.7754638014159525  0.3620922035582694
  0.5229406479440825  0.7754638014159523  0.3620922035582694
  0.2277070956386407  0.8554606578196554  0.2322326302625264
  0.0267648928876962  0.7204138927886808  0.1581675559792828
  0.3440659722706946  0.8995710546218765  0.4720171373433747
  0.3982934539098899  0.5257465675029351  0.3995837786924524
  0.1521744790242572  0.9703775543470633  0.6041942667299657
  0.2277070956386407  0.3554606578196555  0.7322326302625264
  0.5229406479440825  0.2754638014159524  0.8620922035582692
  0.2189488472881463  0.1493373911993210  0.7900371825921474
  0.6020380507959010  0.1059829748348591  0.0297081348302939
  0.7767648928876962  0.2204138927886810  0.1581675559792828
  0.9777070956386404  0.3554606578196554  0.2322326302625264
  0.8520380507959014  0.1059829748348592  0.5297081348302938
  0.4021744790242572  0.9703775543470633  0.1041942667299658
  0.6482934539098899  0.5257465675029350  0.8995837786924524
  0.9777070956386407  0.8554606578196553  0.7322326302625263
  0.7189488472881462  0.1493373911993210  0.7900371825921474
  0.7277070956386407  0.3554606578196555  0.7322326302625263
  0.5267648928876961  0.2204138927886810  0.6581675559792828
  0.8440659722706946  0.3995710546218768  0.9720171373433749
  0.8982934539098897  0.0257465675029352  0.8995837786924524
  0.3520380507959009  0.1059829748348592  0.5297081348302939
  0.9021744790242571  0.4703775543470635  0.6041942667299657
  0.6521744790242571  0.4703775543470635  0.1041942667299658
  0.1020380507959010  0.1059829748348591  0.0297081348302939
  0.6482934539098897  0.0257465675029351  0.3995837786924524
  0.5940659722706946  0.3995710546218768  0.4720171373433749
  0.2767648928876962  0.2204138927886810  0.1581675559792828
  0.1521744790242571  0.4703775543470633  0.1041942667299658
  0.1482934539098897  0.0257465675029351  0.3995837786924524
  0.0940659722706945  0.3995710546218766  0.4720171373433749
  0.2729406479440825  0.2754638014159524  0.3620922035582695
  0.4777070956386407  0.3554606578196554  0.2322326302625264
  0.7729406479440822  0.2754638014159524  0.3620922035582694
  0.4689488472881464  0.1493373911993210  0.2900371825921475
  0.9021744790242572  0.9703775543470635  0.1041942667299658
  0.9689488472881465  0.6493373911993208  0.7900371825921474
  0.3520380507959012  0.6059829748348591  0.0297081348302939
  0.8440659722706947  0.8995710546218766  0.4720171373433749
  0.7767648928876961  0.7204138927886810  0.6581675559792828
  0.6020380507959011  0.6059829748348590  0.5297081348302938
  0.1482934539098898  0.5257465675029350  0.8995837786924522
  0.0940659722706947  0.8995710546218768  0.9720171373433747
  0.2729406479440826  0.7754638014159524  0.8620922035582693
  0.0267648928876962  0.2204138927886810  0.6581675559792828
  0.3440659722706945  0.3995710546218768  0.9720171373433749
  0.3982934539098897  0.0257465675029352  0.8995837786924522
  0.4021744790242570  0.4703775543470635  0.6041942667299657
  0.6521744790242572  0.9703775543470631  0.6041942667299657
  0.1020380507959012  0.6059829748348590  0.5297081348302938
  0.5940659722706947  0.8995710546218766  0.9720171373433747
  0.2767648928876963  0.7204138927886808  0.6581675559792827
  0.4777070956386408  0.8554606578196554  0.7322326302625264
  0.7729406479440826  0.7754638014159522  0.8620922035582695
  0.4689488472881465  0.6493373911993208  0.7900371825921474
  0.7189488472881462  0.6493373911993209  0.2900371825921475
  0.7277070956386407  0.8554606578196553  0.2322326302625264
  0.5267648928876961  0.7204138927886808  0.1581675559792828
  0.8982934539098899  0.5257465675029351  0.3995837786924524
  0.0229406479440826  0.2754638014159524  0.8620922035582693
