Mg32 O33                                
   1.00000000000000     
     8.4194560000000003    0.0000000000000000    0.0000000000000000
     0.0000000000000000    8.4194560000000003    0.0000000000000000
     0.0000000000000000    0.0000000000000000    8.4194560000000003
   Mg   O 
    32    33
Direct
  0.9929607785691559  0.9929607785691559  0.9929607785691559
  0.9978147682141696  0.9978147682141696  0.5050427210387127
  0.9978147682141696  0.5050427210387127  0.9978147682141696
  0.9999941333832822  0.5014057353718329  0.5014057353718329
  0.5050427210387127  0.9978147682141696  0.9978147682141696
  0.5014057353718329  0.9999941333832822  0.5014057353718329
  0.5014057353718329  0.5014057353718329  0.9999941333832822
  0.5001744720221097  0.5001744720221097  0.5001744720221097
  0.9929607785691559  0.2570392214308441  0.2570392214308441
  0.9978147682141696  0.2521852317858304  0.7449572789612873
  0.9978147682141696  0.7449572789612873  0.2521852317858304
  0.9999941333832822  0.7485942646281671  0.7485942646281671
  0.5050427210387127  0.2521852317858304  0.2521852317858304
  0.5014057353718329  0.2500058666167178  0.7485942646281671
  0.5014057353718329  0.7485942646281671  0.2500058666167178
  0.5001744720221097  0.7498255279778903  0.7498255279778903
  0.2570392214308441  0.9929607785691559  0.2570392214308441
  0.2521852317858304  0.9978147682141696  0.7449572789612873
  0.2521852317858304  0.5050427210387127  0.2521852317858304
  0.2500058666167178  0.5014057353718329  0.7485942646281671
  0.7449572789612873  0.9978147682141696  0.2521852317858304
  0.7485942646281671  0.9999941333832822  0.7485942646281671
  0.7485942646281671  0.5014057353718329  0.2500058666167178
  0.7498255279778903  0.5001744720221097  0.7498255279778903
  0.2570392214308441  0.2570392214308441  0.9929607785691559
  0.2521852317858304  0.2521852317858304  0.5050427210387127
  0.2521852317858304  0.7449572789612873  0.9978147682141696
  0.2500058666167178  0.7485942646281671  0.5014057353718329
  0.7449572789612873  0.2521852317858304  0.9978147682141696
  0.7485942646281671  0.2500058666167178  0.5014057353718329
  0.7485942646281671  0.7485942646281671  0.9999941333832822
  0.7498255279778903  0.7498255279778903  0.5001744720221097
  0.1250000000000000  0.1250000000000000  0.1250000000000000
  0.2722008837071215  0.9777991162928785  0.9777991162928785
  0.2502427871382977  0.9997572128617023  0.5003055322596879
  0.2502427871382977  0.5003055322596879  0.9997572128617023
  0.2501037185068284  0.5028536219045918  0.5028536219045918
  0.7496944677403121  0.9997572128617023  0.9997572128617023
  0.7471463780954082  0.9998962814931716  0.5028536219045918
  0.7471463780954082  0.5028536219045918  0.9998962814931716
  0.7502042106001099  0.4997957893998901  0.4997957893998901
  0.2722008837071215  0.2722008837071215  0.2722008837071215
  0.2502427871382977  0.2502427871382977  0.7496944677403121
  0.2502427871382977  0.7496944677403121  0.2502427871382977
  0.2501037185068284  0.7471463780954082  0.7471463780954082
  0.7496944677403121  0.2502427871382977  0.2502427871382977
  0.7471463780954082  0.2501037185068284  0.7471463780954082
  0.7471463780954082  0.7471463780954082  0.2501037185068284
  0.7502042106001099  0.7502042106001099  0.7502042106001099
  0.9777991162928785  0.9777991162928785  0.2722008837071215
  0.9997572128617023  0.9997572128617023  0.7496944677403121
  0.9997572128617023  0.5003055322596879  0.2502427871382977
  0.9998962814931716  0.5028536219045918  0.7471463780954082
  0.5003055322596879  0.9997572128617023  0.2502427871382977
  0.5028536219045918  0.9998962814931716  0.7471463780954082
  0.5028536219045918  0.5028536219045918  0.2501037185068284
  0.4997957893998901  0.4997957893998901  0.7502042106001099
  0.9777991162928785  0.2722008837071215  0.9777991162928785
  0.9997572128617023  0.2502427871382977  0.5003055322596879
  0.9997572128617023  0.7496944677403121  0.9997572128617023
  0.9998962814931716  0.7471463780954082  0.5028536219045918
  0.5003055322596879  0.2502427871382977  0.9997572128617023
  0.5028536219045918  0.2501037185068284  0.5028536219045918
  0.5028536219045918  0.7471463780954082  0.9998962814931716
  0.4997957893998901  0.7502042106001099  0.4997957893998901
 
  0.00000000E+00  0.00000000E+00  0.00000000E+00
  0.00000000E+00  0.00000000E+00  0.00000000E+00
  0.00000000E+00  0.00000000E+00  0.00000000E+00
  0.00000000E+00  0.00000000E+00  0.00000000E+00
  0.00000000E+00  0.00000000E+00  0.00000000E+00
  0.00000000E+00  0.00000000E+00  0.00000000E+00
  0.00000000E+00  0.00000000E+00  0.00000000E+00
  0.00000000E+00  0.00000000E+00  0.00000000E+00
  0.00000000E+00  0.00000000E+00  0.00000000E+00
  0.00000000E+00  0.00000000E+00  0.00000000E+00
  0.00000000E+00  0.00000000E+00  0.00000000E+00
  0.00000000E+00  0.00000000E+00  0.00000000E+00
  0.00000000E+00  0.00000000E+00  0.00000000E+00
  0.00000000E+00  0.00000000E+00  0.00000000E+00
  0.00000000E+00  0.00000000E+00  0.00000000E+00
  0.00000000E+00  0.00000000E+00  0.00000000E+00
  0.00000000E+00  0.00000000E+00  0.00000000E+00
  0.00000000E+00  0.00000000E+00  0.00000000E+00
  0.00000000E+00  0.00000000E+00  0.00000000E+00
  0.00000000E+00  0.00000000E+00  0.00000000E+00
  0.00000000E+00  0.00000000E+00  0.00000000E+00
  0.00000000E+00  0.00000000E+00  0.00000000E+00
  0.00000000E+00  0.00000000E+00  0.00000000E+00
  0.00000000E+00  0.00000000E+00  0.00000000E+00
  0.00000000E+00  0.00000000E+00  0.00000000E+00
  0.00000000E+00  0.00000000E+00  0.00000000E+00
  0.00000000E+00  0.00000000E+00  0.00000000E+00
  0.00000000E+00  0.00000000E+00  0.00000000E+00
  0.00000000E+00  0.00000000E+00  0.00000000E+00
  0.00000000E+00  0.00000000E+00  0.00000000E+00
  0.00000000E+00  0.00000000E+00  0.00000000E+00
  0.00000000E+00  0.00000000E+00  0.00000000E+00
  0.00000000E+00  0.00000000E+00  0.00000000E+00
  0.00000000E+00  0.00000000E+00  0.00000000E+00
  0.00000000E+00  0.00000000E+00  0.00000000E+00
  0.00000000E+00  0.00000000E+00  0.00000000E+00
  0.00000000E+00  0.00000000E+00  0.00000000E+00
  0.00000000E+00  0.00000000E+00  0.00000000E+00
  0.00000000E+00  0.00000000E+00  0.00000000E+00
  0.00000000E+00  0.00000000E+00  0.00000000E+00
  0.00000000E+00  0.00000000E+00  0.00000000E+00
  0.00000000E+00  0.00000000E+00  0.00000000E+00
  0.00000000E+00  0.00000000E+00  0.00000000E+00
  0.00000000E+00  0.00000000E+00  0.00000000E+00
  0.00000000E+00  0.00000000E+00  0.00000000E+00
  0.00000000E+00  0.00000000E+00  0.00000000E+00
  0.00000000E+00  0.00000000E+00  0.00000000E+00
  0.00000000E+00  0.00000000E+00  0.00000000E+00
  0.00000000E+00  0.00000000E+00  0.00000000E+00
  0.00000000E+00  0.00000000E+00  0.00000000E+00
  0.00000000E+00  0.00000000E+00  0.00000000E+00
  0.00000000E+00  0.00000000E+00  0.00000000E+00
  0.00000000E+00  0.00000000E+00  0.00000000E+00
  0.00000000E+00  0.00000000E+00  0.00000000E+00
  0.00000000E+00  0.00000000E+00  0.00000000E+00
  0.00000000E+00  0.00000000E+00  0.00000000E+00
  0.00000000E+00  0.00000000E+00  0.00000000E+00
  0.00000000E+00  0.00000000E+00  0.00000000E+00
  0.00000000E+00  0.00000000E+00  0.00000000E+00
  0.00000000E+00  0.00000000E+00  0.00000000E+00
  0.00000000E+00  0.00000000E+00  0.00000000E+00
  0.00000000E+00  0.00000000E+00  0.00000000E+00
  0.00000000E+00  0.00000000E+00  0.00000000E+00
  0.00000000E+00  0.00000000E+00  0.00000000E+00
  0.00000000E+00  0.00000000E+00  0.00000000E+00
