Mg33 O32
1.0
8.493786 0.000000 0.000000
0.000000 8.493786 0.000000
0.000000 0.000000 8.493786
Mg O
33 32
direct
0.300432 0.300416 0.299222 Mg
0.000000 0.000000 0.000000 Mg
0.000000 0.000000 0.500000 Mg
0.000000 0.500000 0.000000 Mg
0.000000 0.500000 0.500000 Mg
0.500000 0.000000 0.000000 Mg
0.500000 0.000000 0.500000 Mg
0.500000 0.500000 0.000000 Mg
0.500731 0.499262 0.502094 Mg
0.001449 0.248832 0.248442 Mg
0.000000 0.250000 0.750000 Mg
0.000000 0.750000 0.250000 Mg
0.000000 0.750000 0.750000 Mg
0.512877 0.254179 0.249095 Mg
0.500000 0.250000 0.750000 Mg
0.500000 0.750000 0.250000 Mg
0.500000 0.750000 0.750000 Mg
0.248149 0.006283 0.247220 Mg
0.250000 0.000000 0.750000 Mg
0.248110 0.500753 0.251310 Mg
0.250000 0.500000 0.750000 Mg
0.750000 0.000000 0.250000 Mg
0.750000 0.000000 0.750000 Mg
0.750000 0.500000 0.250000 Mg
0.750000 0.500000 0.750000 Mg
0.250242 0.250045 0.003653 Mg
0.251137 0.250983 0.498291 Mg
0.250000 0.750000 0.000000 Mg
0.250000 0.750000 0.500000 Mg
0.750000 0.250000 0.000000 Mg
0.750000 0.250000 0.500000 Mg
0.750000 0.750000 0.000000 Mg
0.750000 0.750000 0.500000 Mg
0.254020 0.245319 0.256179 O
0.250000 0.250000 0.750000 O
0.250000 0.750000 0.250000 O
0.250000 0.750000 0.750000 O
0.750000 0.250000 0.250000 O
0.750000 0.250000 0.750000 O
0.750000 0.750000 0.250000 O
0.750000 0.750000 0.750000 O
0.250000 0.000000 0.000000 O
0.250000 0.000000 0.500000 O
0.250000 0.500000 0.000000 O
0.254770 0.509213 0.495117 O
0.750000 0.000000 0.000000 O
0.750000 0.000000 0.500000 O
0.750000 0.500000 0.000000 O
0.750000 0.500000 0.500000 O
0.000000 0.250000 0.000000 O
0.000000 0.250000 0.500000 O
0.000000 0.750000 0.000000 O
0.000000 0.750000 0.500000 O
0.500000 0.250000 0.000000 O
0.506493 0.253130 0.509708 O
0.500000 0.750000 0.000000 O
0.500000 0.750000 0.500000 O
0.000000 0.000000 0.250000 O
0.000000 0.000000 0.750000 O
0.000000 0.500000 0.250000 O
0.000000 0.500000 0.750000 O
0.500000 0.000000 0.250000 O
0.500000 0.000000 0.750000 O
0.501573 0.501134 0.254515 O
0.500000 0.500000 0.750000 O
