PREC = N ; LREAL = A
LASPH = .TRUE.

ISIF = 2 ; EDIFF = 1.0e-06 ; EDIFFG = -0.02

IBRION = 2
NSW = 20
ISMEAR = 0 ; SIGMA = 0.2
NELM = 100 ; NELMIN = 4
ALGO = N

LWAVE = .TRUE.
LCHARG = .FALSE.

ISPIN = 2
NUPDOWN = 2

NPAR = 4
KPAR = 4

GGA = PS
