O2
   1.00000000000000
    10.0000000000000000    0.0000000000000000    0.0000000000000000
     0.0000000000000000   10.0999999999999996    0.0000000000000000
     0.0000000000000000    0.0000000000000000   10.1999999999999993
   O
     2
Direct
 0.06 0 0 
-0.06 0 0 
