Mg33 O32                                
   1.00000000000000     
     8.4194560000000003    0.0000000000000000    0.0000000000000000
     0.0000000000000000    8.4194560000000003    0.0000000000000000
     0.0000000000000000    0.0000000000000000    8.4194560000000003
   Mg   O 
    33    32
Direct
  0.1250000000000000  0.1250000000000000  0.1250000000000000
  0.9680105458684380  0.9680105458684380  0.9680105458684380
  0.9994101063419549  0.9994101063419549  0.5004096379698453
  0.9994101063419549  0.5004096379698453  0.9994101063419549
  0.9994316658355444  0.5059096835416810  0.5059096835416810
  0.5004096379698453  0.9994101063419549  0.9994101063419549
  0.5059096835416810  0.9994316658355444  0.5059096835416810
  0.5059096835416810  0.5059096835416810  0.9994316658355444
  0.5001595094476770  0.5001595094476770  0.5001595094476770
  0.9680105458684380  0.2819894541315620  0.2819894541315620
  0.9994101063419549  0.2505898936580451  0.7495903620301547
  0.9994101063419549  0.7495903620301547  0.2505898936580451
  0.9994316658355444  0.7440903164583190  0.7440903164583190
  0.5004096379698453  0.2505898936580451  0.2505898936580451
  0.5059096835416810  0.2505683341644556  0.7440903164583190
  0.5059096835416810  0.7440903164583190  0.2505683341644556
  0.5001595094476770  0.7498404905523230  0.7498404905523230
  0.2819894541315620  0.9680105458684380  0.2819894541315620
  0.2505898936580451  0.9994101063419549  0.7495903620301547
  0.2505898936580451  0.5004096379698453  0.2505898936580451
  0.2505683341644556  0.5059096835416810  0.7440903164583190
  0.7495903620301547  0.9994101063419549  0.2505898936580451
  0.7440903164583190  0.9994316658355444  0.7440903164583190
  0.7440903164583190  0.5059096835416810  0.2505683341644556
  0.7498404905523230  0.5001595094476770  0.7498404905523230
  0.2819894541315620  0.2819894541315620  0.9680105458684380
  0.2505898936580451  0.2505898936580451  0.5004096379698453
  0.2505898936580451  0.7495903620301547  0.9994101063419549
  0.2505683341644556  0.7440903164583190  0.5059096835416810
  0.7495903620301547  0.2505898936580451  0.9994101063419549
  0.7440903164583190  0.2505683341644556  0.5059096835416810
  0.7440903164583190  0.7440903164583190  0.9994316658355444
  0.7498404905523230  0.7498404905523230  0.5001595094476770
  0.2539611071840753  0.9960388928159247  0.9960388928159247
  0.2532750097056677  0.9967249902943323  0.5081815023516256
  0.2532750097056677  0.5081815023516256  0.9967249902943323
  0.2497511173938562  0.5001466473558622  0.5001466473558622
  0.7418184976483744  0.9967249902943323  0.9967249902943323
  0.7498533526441378  0.0002488826061438  0.5001466473558622
  0.7498533526441378  0.5001466473558622  0.0002488826061438
  0.7496402623281284  0.5003597376718716  0.5003597376718716
  0.2539611071840753  0.2539611071840753  0.2539611071840753
  0.2532750097056677  0.2532750097056677  0.7418184976483744
  0.2532750097056677  0.7418184976483744  0.2532750097056677
  0.2497511173938562  0.7498533526441378  0.7498533526441378
  0.7418184976483744  0.2532750097056677  0.2532750097056677
  0.7498533526441378  0.2497511173938562  0.7498533526441378
  0.7498533526441378  0.7498533526441378  0.2497511173938562
  0.7496402623281284  0.7496402623281284  0.7496402623281284
  0.9960388928159247  0.9960388928159247  0.2539611071840753
  0.9967249902943323  0.9967249902943323  0.7418184976483744
  0.9967249902943323  0.5081815023516256  0.2532750097056677
  0.0002488826061438  0.5001466473558622  0.7498533526441378
  0.5081815023516256  0.9967249902943323  0.2532750097056677
  0.5001466473558622  0.0002488826061438  0.7498533526441378
  0.5001466473558622  0.5001466473558622  0.2497511173938562
  0.5003597376718716  0.5003597376718716  0.7496402623281284
  0.9960388928159247  0.2539611071840753  0.9960388928159247
  0.9967249902943323  0.2532750097056677  0.5081815023516256
  0.9967249902943323  0.7418184976483744  0.9967249902943323
  0.0002488826061438  0.7498533526441378  0.5001466473558622
  0.5081815023516256  0.2532750097056677  0.9967249902943323
  0.5001466473558622  0.2497511173938562  0.5001466473558622
  0.5001466473558622  0.7498533526441378  0.0002488826061438
  0.5003597376718716  0.7496402623281284  0.5003597376718716
 
  0.00000000E+00  0.00000000E+00  0.00000000E+00
  0.00000000E+00  0.00000000E+00  0.00000000E+00
  0.00000000E+00  0.00000000E+00  0.00000000E+00
  0.00000000E+00  0.00000000E+00  0.00000000E+00
  0.00000000E+00  0.00000000E+00  0.00000000E+00
  0.00000000E+00  0.00000000E+00  0.00000000E+00
  0.00000000E+00  0.00000000E+00  0.00000000E+00
  0.00000000E+00  0.00000000E+00  0.00000000E+00
  0.00000000E+00  0.00000000E+00  0.00000000E+00
  0.00000000E+00  0.00000000E+00  0.00000000E+00
  0.00000000E+00  0.00000000E+00  0.00000000E+00
  0.00000000E+00  0.00000000E+00  0.00000000E+00
  0.00000000E+00  0.00000000E+00  0.00000000E+00
  0.00000000E+00  0.00000000E+00  0.00000000E+00
  0.00000000E+00  0.00000000E+00  0.00000000E+00
  0.00000000E+00  0.00000000E+00  0.00000000E+00
  0.00000000E+00  0.00000000E+00  0.00000000E+00
  0.00000000E+00  0.00000000E+00  0.00000000E+00
  0.00000000E+00  0.00000000E+00  0.00000000E+00
  0.00000000E+00  0.00000000E+00  0.00000000E+00
  0.00000000E+00  0.00000000E+00  0.00000000E+00
  0.00000000E+00  0.00000000E+00  0.00000000E+00
  0.00000000E+00  0.00000000E+00  0.00000000E+00
  0.00000000E+00  0.00000000E+00  0.00000000E+00
  0.00000000E+00  0.00000000E+00  0.00000000E+00
  0.00000000E+00  0.00000000E+00  0.00000000E+00
  0.00000000E+00  0.00000000E+00  0.00000000E+00
  0.00000000E+00  0.00000000E+00  0.00000000E+00
  0.00000000E+00  0.00000000E+00  0.00000000E+00
  0.00000000E+00  0.00000000E+00  0.00000000E+00
  0.00000000E+00  0.00000000E+00  0.00000000E+00
  0.00000000E+00  0.00000000E+00  0.00000000E+00
  0.00000000E+00  0.00000000E+00  0.00000000E+00
  0.00000000E+00  0.00000000E+00  0.00000000E+00
  0.00000000E+00  0.00000000E+00  0.00000000E+00
  0.00000000E+00  0.00000000E+00  0.00000000E+00
  0.00000000E+00  0.00000000E+00  0.00000000E+00
  0.00000000E+00  0.00000000E+00  0.00000000E+00
  0.00000000E+00  0.00000000E+00  0.00000000E+00
  0.00000000E+00  0.00000000E+00  0.00000000E+00
  0.00000000E+00  0.00000000E+00  0.00000000E+00
  0.00000000E+00  0.00000000E+00  0.00000000E+00
  0.00000000E+00  0.00000000E+00  0.00000000E+00
  0.00000000E+00  0.00000000E+00  0.00000000E+00
  0.00000000E+00  0.00000000E+00  0.00000000E+00
  0.00000000E+00  0.00000000E+00  0.00000000E+00
  0.00000000E+00  0.00000000E+00  0.00000000E+00
  0.00000000E+00  0.00000000E+00  0.00000000E+00
  0.00000000E+00  0.00000000E+00  0.00000000E+00
  0.00000000E+00  0.00000000E+00  0.00000000E+00
  0.00000000E+00  0.00000000E+00  0.00000000E+00
  0.00000000E+00  0.00000000E+00  0.00000000E+00
  0.00000000E+00  0.00000000E+00  0.00000000E+00
  0.00000000E+00  0.00000000E+00  0.00000000E+00
  0.00000000E+00  0.00000000E+00  0.00000000E+00
  0.00000000E+00  0.00000000E+00  0.00000000E+00
  0.00000000E+00  0.00000000E+00  0.00000000E+00
  0.00000000E+00  0.00000000E+00  0.00000000E+00
  0.00000000E+00  0.00000000E+00  0.00000000E+00
  0.00000000E+00  0.00000000E+00  0.00000000E+00
  0.00000000E+00  0.00000000E+00  0.00000000E+00
  0.00000000E+00  0.00000000E+00  0.00000000E+00
  0.00000000E+00  0.00000000E+00  0.00000000E+00
  0.00000000E+00  0.00000000E+00  0.00000000E+00
  0.00000000E+00  0.00000000E+00  0.00000000E+00
