Mg33 O32                                
   1.00000000000000     
     8.4194560000000003    0.0000000000000000    0.0000000000000000
     0.0000000000000000    8.4194560000000003    0.0000000000000000
     0.0000000000000000    0.0000000000000000    8.4194560000000003
   Mg   O 
    33    32
Direct
  0.1250000000000000  0.1250000000000000  0.1250000000000000
  0.9680105457931703  0.9680105457931703  0.9680105457931703
  0.9994101063393472  0.9994101063393472  0.5004096379504261
  0.9994101063393472  0.5004096379504261  0.9994101063393472
  0.9994316658549067  0.5059096835769950  0.5059096835769950
  0.5004096379504261  0.9994101063393472  0.9994101063393472
  0.5059096835769950  0.9994316658549067  0.5059096835769950
  0.5059096835769950  0.5059096835769950  0.9994316658549067
  0.5001595094458011  0.5001595094458011  0.5001595094458011
  0.9680105457931703  0.2819894542068297  0.2819894542068297
  0.9994101063393472  0.2505898936606528  0.7495903620495739
  0.9994101063393472  0.7495903620495739  0.2505898936606528
  0.9994316658549067  0.7440903164230050  0.7440903164230050
  0.5004096379504261  0.2505898936606528  0.2505898936606528
  0.5059096835769950  0.2505683341450933  0.7440903164230050
  0.5059096835769950  0.7440903164230050  0.2505683341450933
  0.5001595094458011  0.7498404905541989  0.7498404905541989
  0.2819894542068297  0.9680105457931703  0.2819894542068297
  0.2505898936606528  0.9994101063393472  0.7495903620495739
  0.2505898936606528  0.5004096379504261  0.2505898936606528
  0.2505683341450933  0.5059096835769950  0.7440903164230050
  0.7495903620495739  0.9994101063393472  0.2505898936606528
  0.7440903164230050  0.9994316658549067  0.7440903164230050
  0.7440903164230050  0.5059096835769950  0.2505683341450933
  0.7498404905541989  0.5001595094458011  0.7498404905541989
  0.2819894542068297  0.2819894542068297  0.9680105457931703
  0.2505898936606528  0.2505898936606528  0.5004096379504261
  0.2505898936606528  0.7495903620495739  0.9994101063393472
  0.2505683341450933  0.7440903164230050  0.5059096835769950
  0.7495903620495739  0.2505898936606528  0.9994101063393472
  0.7440903164230050  0.2505683341450933  0.5059096835769950
  0.7440903164230050  0.7440903164230050  0.9994316658549067
  0.7498404905541989  0.7498404905541989  0.5001595094458011
  0.2539611072300403  0.9960388927699597  0.9960388927699597
  0.2532750097186423  0.9967249902813577  0.5081815024262397
  0.2532750097186423  0.5081815024262397  0.9967249902813577
  0.2497511173948155  0.5001466473688438  0.5001466473688438
  0.7418184975737603  0.9967249902813577  0.9967249902813577
  0.7498533526311562  0.0002488826051845  0.5001466473688438
  0.7498533526311562  0.5001466473688438  0.0002488826051845
  0.7496402623453875  0.5003597376546125  0.5003597376546125
  0.2539611072300403  0.2539611072300403  0.2539611072300403
  0.2532750097186423  0.2532750097186423  0.7418184975737603
  0.2532750097186423  0.7418184975737603  0.2532750097186423
  0.2497511173948155  0.7498533526311562  0.7498533526311562
  0.7418184975737603  0.2532750097186423  0.2532750097186423
  0.7498533526311562  0.2497511173948155  0.7498533526311562
  0.7498533526311562  0.7498533526311562  0.2497511173948155
  0.7496402623453875  0.7496402623453875  0.7496402623453875
  0.9960388927699597  0.9960388927699597  0.2539611072300403
  0.9967249902813577  0.9967249902813577  0.7418184975737603
  0.9967249902813577  0.5081815024262397  0.2532750097186423
  0.0002488826051845  0.5001466473688438  0.7498533526311562
  0.5081815024262397  0.9967249902813577  0.2532750097186423
  0.5001466473688438  0.0002488826051845  0.7498533526311562
  0.5001466473688438  0.5001466473688438  0.2497511173948155
  0.5003597376546125  0.5003597376546125  0.7496402623453875
  0.9960388927699597  0.2539611072300403  0.9960388927699597
  0.9967249902813577  0.2532750097186423  0.5081815024262397
  0.9967249902813577  0.7418184975737603  0.9967249902813577
  0.0002488826051845  0.7498533526311562  0.5001466473688438
  0.5081815024262397  0.2532750097186423  0.9967249902813577
  0.5001466473688438  0.2497511173948155  0.5001466473688438
  0.5001466473688438  0.7498533526311562  0.0002488826051845
  0.5003597376546125  0.7496402623453875  0.5003597376546125
 
  0.00000000E+00  0.00000000E+00  0.00000000E+00
  0.00000000E+00  0.00000000E+00  0.00000000E+00
  0.00000000E+00  0.00000000E+00  0.00000000E+00
  0.00000000E+00  0.00000000E+00  0.00000000E+00
  0.00000000E+00  0.00000000E+00  0.00000000E+00
  0.00000000E+00  0.00000000E+00  0.00000000E+00
  0.00000000E+00  0.00000000E+00  0.00000000E+00
  0.00000000E+00  0.00000000E+00  0.00000000E+00
  0.00000000E+00  0.00000000E+00  0.00000000E+00
  0.00000000E+00  0.00000000E+00  0.00000000E+00
  0.00000000E+00  0.00000000E+00  0.00000000E+00
  0.00000000E+00  0.00000000E+00  0.00000000E+00
  0.00000000E+00  0.00000000E+00  0.00000000E+00
  0.00000000E+00  0.00000000E+00  0.00000000E+00
  0.00000000E+00  0.00000000E+00  0.00000000E+00
  0.00000000E+00  0.00000000E+00  0.00000000E+00
  0.00000000E+00  0.00000000E+00  0.00000000E+00
  0.00000000E+00  0.00000000E+00  0.00000000E+00
  0.00000000E+00  0.00000000E+00  0.00000000E+00
  0.00000000E+00  0.00000000E+00  0.00000000E+00
  0.00000000E+00  0.00000000E+00  0.00000000E+00
  0.00000000E+00  0.00000000E+00  0.00000000E+00
  0.00000000E+00  0.00000000E+00  0.00000000E+00
  0.00000000E+00  0.00000000E+00  0.00000000E+00
  0.00000000E+00  0.00000000E+00  0.00000000E+00
  0.00000000E+00  0.00000000E+00  0.00000000E+00
  0.00000000E+00  0.00000000E+00  0.00000000E+00
  0.00000000E+00  0.00000000E+00  0.00000000E+00
  0.00000000E+00  0.00000000E+00  0.00000000E+00
  0.00000000E+00  0.00000000E+00  0.00000000E+00
  0.00000000E+00  0.00000000E+00  0.00000000E+00
  0.00000000E+00  0.00000000E+00  0.00000000E+00
  0.00000000E+00  0.00000000E+00  0.00000000E+00
  0.00000000E+00  0.00000000E+00  0.00000000E+00
  0.00000000E+00  0.00000000E+00  0.00000000E+00
  0.00000000E+00  0.00000000E+00  0.00000000E+00
  0.00000000E+00  0.00000000E+00  0.00000000E+00
  0.00000000E+00  0.00000000E+00  0.00000000E+00
  0.00000000E+00  0.00000000E+00  0.00000000E+00
  0.00000000E+00  0.00000000E+00  0.00000000E+00
  0.00000000E+00  0.00000000E+00  0.00000000E+00
  0.00000000E+00  0.00000000E+00  0.00000000E+00
  0.00000000E+00  0.00000000E+00  0.00000000E+00
  0.00000000E+00  0.00000000E+00  0.00000000E+00
  0.00000000E+00  0.00000000E+00  0.00000000E+00
  0.00000000E+00  0.00000000E+00  0.00000000E+00
  0.00000000E+00  0.00000000E+00  0.00000000E+00
  0.00000000E+00  0.00000000E+00  0.00000000E+00
  0.00000000E+00  0.00000000E+00  0.00000000E+00
  0.00000000E+00  0.00000000E+00  0.00000000E+00
  0.00000000E+00  0.00000000E+00  0.00000000E+00
  0.00000000E+00  0.00000000E+00  0.00000000E+00
  0.00000000E+00  0.00000000E+00  0.00000000E+00
  0.00000000E+00  0.00000000E+00  0.00000000E+00
  0.00000000E+00  0.00000000E+00  0.00000000E+00
  0.00000000E+00  0.00000000E+00  0.00000000E+00
  0.00000000E+00  0.00000000E+00  0.00000000E+00
  0.00000000E+00  0.00000000E+00  0.00000000E+00
  0.00000000E+00  0.00000000E+00  0.00000000E+00
  0.00000000E+00  0.00000000E+00  0.00000000E+00
  0.00000000E+00  0.00000000E+00  0.00000000E+00
  0.00000000E+00  0.00000000E+00  0.00000000E+00
  0.00000000E+00  0.00000000E+00  0.00000000E+00
  0.00000000E+00  0.00000000E+00  0.00000000E+00
  0.00000000E+00  0.00000000E+00  0.00000000E+00
