Mg31 Sc1 O32
1.0
8.493786 0.000000 0.000000
-0.000000 8.493786 0.000000
0.000000 0.000000 8.493786
Sc Mg O
1 31 32
direct
0.978174 0.995087 0.002318 Sc
0.000000 0.000000 0.500000 Mg
0.000000 0.500000 0.000000 Mg
0.000000 0.500000 0.500000 Mg
0.500000 0.000000 0.000000 Mg
0.500000 0.000000 0.500000 Mg
0.500000 0.500000 0.000000 Mg
0.500000 0.500000 0.500000 Mg
0.000000 0.250000 0.250000 Mg
0.000000 0.250000 0.750000 Mg
0.000000 0.750000 0.250000 Mg
0.000000 0.750000 0.750000 Mg
0.500000 0.250000 0.250000 Mg
0.500000 0.250000 0.750000 Mg
0.500000 0.750000 0.250000 Mg
0.500000 0.750000 0.750000 Mg
0.250000 0.000000 0.250000 Mg
0.250000 0.000000 0.750000 Mg
0.250000 0.500000 0.250000 Mg
0.250000 0.500000 0.750000 Mg
0.750000 0.000000 0.250000 Mg
0.750000 0.000000 0.750000 Mg
0.750000 0.500000 0.250000 Mg
0.750000 0.500000 0.750000 Mg
0.250000 0.250000 0.000000 Mg
0.250000 0.250000 0.500000 Mg
0.250000 0.750000 0.000000 Mg
0.250000 0.750000 0.500000 Mg
0.750000 0.250000 0.000000 Mg
0.750000 0.250000 0.500000 Mg
0.750000 0.750000 0.000000 Mg
0.750000 0.750000 0.500000 Mg
0.250000 0.250000 0.250000 O
0.250000 0.250000 0.750000 O
0.250000 0.750000 0.250000 O
0.250000 0.750000 0.750000 O
0.750000 0.250000 0.250000 O
0.750000 0.250000 0.750000 O
0.750000 0.750000 0.250000 O
0.750000 0.750000 0.750000 O
0.250075 0.999113 0.000316 O
0.250000 0.000000 0.500000 O
0.250000 0.500000 0.000000 O
0.250000 0.500000 0.500000 O
0.754130 0.008031 0.016798 O
0.750000 0.000000 0.500000 O
0.750000 0.500000 0.000000 O
0.750000 0.500000 0.500000 O
0.995285 0.264732 0.001804 O
0.000000 0.250000 0.500000 O
0.009377 0.764582 0.013059 O
0.000000 0.750000 0.500000 O
0.500000 0.250000 0.000000 O
0.500000 0.250000 0.500000 O
0.500000 0.750000 0.000000 O
0.500000 0.750000 0.500000 O
0.992082 0.992687 0.259934 O
0.002018 0.999700 0.748228 O
0.000000 0.500000 0.250000 O
0.000000 0.500000 0.750000 O
0.500000 0.000000 0.250000 O
0.500000 0.000000 0.750000 O
0.500000 0.500000 0.250000 O
0.500000 0.500000 0.750000 O
