Li2 O3 Ti1-2x2x1                        
   1.00000000000000     
    10.1892954901661401    0.0000000000000000   -0.0166431489875300
     0.0000000000000000   17.6911782476998383    0.0000000000000000
    -1.7244801427344600    0.0000000000000000    9.6667443259936991
   Li   Ti   O 
    64    32    95
Direct
  0.1199421129465914  0.0412480969579552  0.0026316111063420
  0.6194544892664323  0.0426053753178567  0.0020310148565438
  0.1210496498463115  0.5392871099024705  0.0000799265368155
  0.6211018588574213  0.5388498652678276  0.9998058746622168
  0.3790407843731141  0.4596317082220712  0.0006997190119896
  0.8792352885695791  0.4586705833909014  0.0008700366857608
  0.3801155288070875  0.9620069478183553  0.0024981616261145
  0.8790134714870220  0.9687939500735111  0.0126651460605938
  0.3810417221443704  0.0413692506340956  0.4984628829754509
  0.8829846732992139  0.0448608607545246  0.4944102220150133
  0.3788163372308225  0.5388742686622469  0.4997053358219557
  0.8781452478491457  0.5374122230853392  0.4995209660406622
  0.1201763054579218  0.4589718048516584  0.4980251708683523
  0.6197570970713955  0.4591592132074173  0.4981933808392719
  0.1224788357636400  0.9639142635720696  0.4932822136416760
  0.6223032785679942  0.9580638758082746  0.5007519253080570
  0.3702715494586909  0.2907795148153261 -0.0001058455798724
  0.8704866849361443  0.2908282329387324  0.0007919166431404
  0.3752447207083783  0.7892458058001192  0.0011631468074867
  0.8708373753945251  0.7880575569104996  0.9978288573761950
  0.1289177755961095  0.2118754058657678  0.0031673162579534
  0.6287343103832289  0.2114392389811093  0.0013735936802784
  0.1342800392146379  0.7048783619079103  0.0063846126485851
  0.6290873192549787  0.7088746334328925  0.0036362821163636
  0.1294183453894208  0.2908145246624527  0.4992275867181066
  0.6288162556375380  0.2903761174686337  0.4990886869110115
  0.1245048860746267  0.7893610764809191  0.4994560597935813
  0.6087221096294072  0.7874858119005912  0.4900031149736244
  0.3703820319524174  0.2110319236779865  0.4972489001813098
  0.8707493100009236  0.2114404841321317  0.4975293818553935
  0.3670613298800522  0.7078667902722618  0.4985176566372478
  0.8753659092098820  0.6978225691107519  0.4908210351036365
  0.1262000787575490  0.1264199832549914  0.5003818296515955
  0.6204247550967599  0.1255211169429257  0.4956527722583403
  0.1261191800768809  0.6219250774093332  0.4952157599503637
  0.6254274788272771  0.6248709182818063  0.5003538616391624
  0.3741674327830400  0.3747901626414202  0.4982379988546327
  0.8745610937733342  0.3744953511982718  0.4987599453976188
  0.3695693103537294  0.8730925597764513  0.4915896278937768
  0.8839929427610517  0.8843366503975347  0.4944398166239197
  0.3771557177764828  0.1258437309194550  0.0017097769709828
  0.8754367284323181  0.1272275594214977 -0.0006832358265316
  0.3757345045365960  0.6233596057900443  0.0024233390567014
  0.8751314966577518  0.6219953551155897  0.0046492771849878
  0.1247653397993836  0.3749673793239280  0.0005025655251049
  0.6248446595621809  0.3747954021298230  0.0003358776491553
  0.1411649734352798  0.8772139377994176  0.0097848177989079
  0.6219452513159407  0.8717452701184005  0.0093512511678509
  0.0003855766544588  0.0434812233637378  0.2512551170408542
  0.5002023419603170  0.0426845233847701  0.2508096155085568
  0.9997270654274797  0.5415476141730597  0.2499143605414516
  0.5000022670366663  0.5415667607336292  0.2507045742210096
  0.9993090564273847  0.4571315871335186  0.7498172555057251
  0.4989127365761158  0.4568939841790763  0.7496622753982206
  0.9984829912587803  0.9564333283792719  0.7485212732708647
  0.4961433476116023  0.9624899948409816  0.7519233347797665
  0.2497989510110732  0.2924164139652707  0.2499439407993800
  0.7498951774667488  0.2923230338423299  0.2495921580396878
  0.2502277153373171  0.7915873385685938  0.2507457389091762
  0.7508107030175692  0.7917941026294778  0.2535601375468728
  0.2502801942463206  0.2096431055313519  0.7495400979263857
  0.7489482539221758  0.2100389202097021  0.7498624752058666
  0.2573320107971960  0.7044802610436289  0.7494986190192073
  0.7464843939287639  0.6995497891820264  0.7698605335405462
  0.0002263157675539  0.2089263859419142  0.2503980416955613
  0.5001909450666370  0.2093511910589925  0.2497399866944830
 -0.0001213199907661  0.7085198566022053  0.2488117498416749
  0.4992520858965417  0.7080711310724239  0.2493504697403786
  0.0002310077152950  0.2922673137648754  0.7498787088604431
  0.4990563162248126  0.2920607565096694  0.7488054352174944
  0.0265806327821377  0.7885847546103620  0.7675737351727303
  0.5013800149359456  0.7880653724410748  0.7485071131649219
  0.2497079622388928  0.4580750869308866  0.2490735820938117
  0.7497718808302111  0.4580450509995240  0.2498178751609200
  0.2500962974886844  0.9598269577150542  0.2511439215204405
  0.7497767447837282  0.9593422995703297  0.2516807099034921
  0.2485383521382943  0.0435273049147530  0.7517202456593787
  0.7509999378763754  0.0471689762916679  0.7440385602525695
  0.2478442081194017  0.5408889724062018  0.7493295028401704
  0.7486266788704369  0.5392606523383336  0.7491373968620226
  0.9998337877107709  0.3748426027987979  0.2497989920855784
  0.4997848928961203  0.3751407152088866  0.2494647536769392
  0.9997148553139505  0.8746956109508445  0.2473484849778162
  0.4995098452361942  0.8755049227225148  0.2498443156926934
  0.0022078985256342  0.1266193981420024  0.7518317312992147
  0.4985431915132308  0.1265823110170222  0.7493662313606512
  0.9969085326862295  0.6235202589274218  0.7498865362405023
  0.4993455378765402  0.6223156659407343  0.7498062880026279
  0.2503719660110560  0.1258527839221087  0.2491116887653303
  0.7496739136470585  0.1257538011169910  0.2488124894840690
  0.2502502262188714  0.6239265858925428  0.2511586207476110
  0.7494397212078070  0.6239302381674054  0.2492017330121385
  0.2497053303748117  0.3752492915442496  0.7496261121291119
  0.7495256001943114  0.3740762403681329  0.7495938805267878
  0.2582885639278435  0.8791126924225390  0.7435677723261078
  0.7389516774674189  0.8848442872851344  0.7682990143781405
  0.0698651022632994  0.1314364482086138  0.1360084409107869
  0.5697864281617474  0.1314182721345053  0.1354045988255221
  0.0698758937259441  0.6313401296988788  0.1355175387235230
  0.5695923274482625  0.6313070110360964  0.1365226909156184
  0.4294135448587996  0.3688991673111819  0.8631549482705730
  0.9297420939962256  0.3686430151150716  0.8636167233665411
  0.4321222193765521  0.8692107787463119  0.8600526549491335
  0.9212273851536429  0.8616976919611899  0.8454186496730141
  0.4301993493738133  0.1314779383029626  0.3636965762918941
  0.9300015682375283  0.1316443313546590  0.3641179089003134
  0.4300972075687808  0.6313535876418970  0.3642547726304438
  0.9311136676078926  0.6299551904339025  0.3619726565874503
  0.0692114557877028  0.3687234710291586  0.6358161317194756
  0.5694210370080708  0.3686299965852854  0.6355910670361726
  0.0692633701303225  0.8657239067654289  0.6398012204083233
  0.5809435011438734  0.8645937697139902  0.6342164258361773
  0.3194474024191812  0.3814207096327130  0.1353647940110142
  0.8196646528146960  0.3812985482675122  0.1356615061921079
  0.3209604790165819  0.8818825242660304  0.1356279103312176
  0.8205211900586745  0.8825461821293904  0.1353278148971135
  0.1802741240669323  0.1188182657338615  0.8651490378934229
  0.6807993912261553  0.1193100884129130  0.8620819475914198
  0.1781556662244773  0.6197283495590745  0.8617295399935299
  0.6786024412294570  0.6167343767956590  0.8653154223931613
  0.1800009256350915  0.3813446569175377  0.3635926939175309
  0.6798495719421697  0.3812924121173286  0.3635722804764479
  0.1796425095527730  0.8818566248329532  0.3632004716722356
  0.6819604728826906  0.8807632368930484  0.3657952277016242
  0.3192106086991838  0.1186235912169186  0.6360535165021750
  0.8195061006473194  0.1194547560796688  0.6332687000767185
  0.3197351235973651  0.6189639367304014  0.6358720791554160
  0.8173843564574375  0.6196443248065051  0.6362617529303304
  0.0528167216897563  0.2920331322529938  0.1360046146174309
  0.5526507463704315  0.2921379755337022  0.1355180727535035
  0.0531571815690732  0.7921951644854980  0.1351989328080689
  0.5536241638663738  0.7921425103565903  0.1365790841165630
  0.4467757337773234  0.2080798080197178  0.8633859933842722
  0.9468539497189907  0.2078034709124557  0.8635630224873723
  0.4483966915889695  0.7077946553284298  0.8627284220012266
  0.9433714292283721  0.7084694007417414  0.8615594128549730
  0.4467308896765658  0.2921305678467179  0.3632528992377058
  0.9469357101999515  0.2920855770906647  0.3638459071601218
  0.4439531922794721  0.7920089665287079  0.3623965333674973
  0.9459807168378962  0.7925320432392032  0.3640276669675357
  0.0531048596276393  0.2078204931205669  0.6367262837267501
  0.5518786109444986  0.2081009119885309  0.6354585643504886
  0.0438453320079703  0.7107550724939956  0.6342023735353015
  0.5569057805302285  0.7070587503027596  0.6363865870655957
  0.3031613944770080  0.0422559780043422  0.1361689535774385
  0.8030345462692866  0.0424641777904315  0.1362256186194492
  0.3026751423232893  0.5420825432952990  0.1359218086244405
  0.8026406413141429  0.5420583564932537  0.1357054104933329
  0.1958294974412766  0.4586000170757213  0.8630436047592313
  0.6966670628073964  0.4575998820062954  0.8632762519953457
  0.1985604674474985  0.9568997360764346  0.8614271460323193
  0.6909844657277814  0.9611127331914189  0.8725675717188043
  0.1971710984397357  0.0421591277835183  0.3639825430908263
  0.6976279184085667  0.0422391055611705  0.3640598940722437
  0.1969037197440584  0.5419655848818676  0.3639625431044020
  0.6970551283448480  0.5419946945114797  0.3635426497004881
  0.3015757016102190  0.4583983855728455  0.6358035947128148
  0.8027205309328423  0.4579715815534582  0.6357481536779661
  0.3048343293632615  0.9582913621726437  0.6329946328189385
  0.8014184097155430  0.9553890007834496  0.6408494960350887
  0.0689907219771888  0.4530167626039386  0.1334593658521624
  0.5690809306712219  0.4529938545072115  0.1334195026079021
  0.0698526981500092  0.9531393400461272  0.1316926036678196
  0.5692150531923694  0.9530834377470672  0.1354604577636177
  0.4297995595563326  0.0475211854244703  0.8658121596539885
  0.9291403825942683  0.0473338295026240  0.8647877452442128
  0.4294469545966973  0.5468701464134356  0.8657982265945348
  0.9301545103642015  0.5470319472524697  0.8653196650245414
  0.4304167215331240  0.4529223478102423  0.3657179232779474
  0.9303773047747708  0.4527823992980817  0.3660700173437628
  0.4308803267722317  0.9526922662248021  0.3668837511423766
  0.9324422820737293  0.9547347216784869  0.3653448391480950
  0.0699924145994189  0.0474066366652184  0.6343553478810975
  0.5693800790019612  0.0467917032514036  0.6340446429454127
  0.0675205869596374  0.5479756134972180  0.6325302847517550
  0.5682092614831054  0.5461604158775669  0.6334270534626697
  0.3189154489959816  0.2032333959885207  0.1334491386355318
  0.8190634958463254  0.2033205791631915  0.1336581157660827
  0.3200852939545966  0.7024726809477012  0.1337700553413244
  0.8192486311282277  0.7027289314273628  0.1338247282209877
  0.1803344621879664  0.2973409937572998  0.8659753884055162
  0.6802729005635411  0.2970393188253073  0.8655341814446943
  0.1911452197191894  0.7942742246447105  0.8749827830750198
  0.6823233434315400  0.7957001079215136  0.8663032469226971
  0.1809149975926463  0.2032388162483482  0.3660420355338189
  0.6803316648087969  0.2032752136301504  0.3655886279917339
  0.1798291097278102  0.7027002631860485  0.3661675482802066
  0.6815450339814881  0.7034762826763856  0.3685822777960458
  0.3185255115454795  0.2973028946145420  0.6334116575977143
  0.8189283811219299  0.2969036700965061  0.6336346268219906
  0.3215882862549288  0.7966165331507523  0.6326563334029801
 
  0.00000000E+00  0.00000000E+00  0.00000000E+00
  0.00000000E+00  0.00000000E+00  0.00000000E+00
  0.00000000E+00  0.00000000E+00  0.00000000E+00
  0.00000000E+00  0.00000000E+00  0.00000000E+00
  0.00000000E+00  0.00000000E+00  0.00000000E+00
  0.00000000E+00  0.00000000E+00  0.00000000E+00
  0.00000000E+00  0.00000000E+00  0.00000000E+00
  0.00000000E+00  0.00000000E+00  0.00000000E+00
  0.00000000E+00  0.00000000E+00  0.00000000E+00
  0.00000000E+00  0.00000000E+00  0.00000000E+00
  0.00000000E+00  0.00000000E+00  0.00000000E+00
  0.00000000E+00  0.00000000E+00  0.00000000E+00
  0.00000000E+00  0.00000000E+00  0.00000000E+00
  0.00000000E+00  0.00000000E+00  0.00000000E+00
  0.00000000E+00  0.00000000E+00  0.00000000E+00
  0.00000000E+00  0.00000000E+00  0.00000000E+00
  0.00000000E+00  0.00000000E+00  0.00000000E+00
  0.00000000E+00  0.00000000E+00  0.00000000E+00
  0.00000000E+00  0.00000000E+00  0.00000000E+00
  0.00000000E+00  0.00000000E+00  0.00000000E+00
  0.00000000E+00  0.00000000E+00  0.00000000E+00
  0.00000000E+00  0.00000000E+00  0.00000000E+00
  0.00000000E+00  0.00000000E+00  0.00000000E+00
  0.00000000E+00  0.00000000E+00  0.00000000E+00
  0.00000000E+00  0.00000000E+00  0.00000000E+00
  0.00000000E+00  0.00000000E+00  0.00000000E+00
  0.00000000E+00  0.00000000E+00  0.00000000E+00
  0.00000000E+00  0.00000000E+00  0.00000000E+00
  0.00000000E+00  0.00000000E+00  0.00000000E+00
  0.00000000E+00  0.00000000E+00  0.00000000E+00
  0.00000000E+00  0.00000000E+00  0.00000000E+00
  0.00000000E+00  0.00000000E+00  0.00000000E+00
  0.00000000E+00  0.00000000E+00  0.00000000E+00
  0.00000000E+00  0.00000000E+00  0.00000000E+00
  0.00000000E+00  0.00000000E+00  0.00000000E+00
  0.00000000E+00  0.00000000E+00  0.00000000E+00
  0.00000000E+00  0.00000000E+00  0.00000000E+00
  0.00000000E+00  0.00000000E+00  0.00000000E+00
  0.00000000E+00  0.00000000E+00  0.00000000E+00
  0.00000000E+00  0.00000000E+00  0.00000000E+00
  0.00000000E+00  0.00000000E+00  0.00000000E+00
  0.00000000E+00  0.00000000E+00  0.00000000E+00
  0.00000000E+00  0.00000000E+00  0.00000000E+00
  0.00000000E+00  0.00000000E+00  0.00000000E+00
  0.00000000E+00  0.00000000E+00  0.00000000E+00
  0.00000000E+00  0.00000000E+00  0.00000000E+00
  0.00000000E+00  0.00000000E+00  0.00000000E+00
  0.00000000E+00  0.00000000E+00  0.00000000E+00
  0.00000000E+00  0.00000000E+00  0.00000000E+00
  0.00000000E+00  0.00000000E+00  0.00000000E+00
  0.00000000E+00  0.00000000E+00  0.00000000E+00
  0.00000000E+00  0.00000000E+00  0.00000000E+00
  0.00000000E+00  0.00000000E+00  0.00000000E+00
  0.00000000E+00  0.00000000E+00  0.00000000E+00
  0.00000000E+00  0.00000000E+00  0.00000000E+00
  0.00000000E+00  0.00000000E+00  0.00000000E+00
  0.00000000E+00  0.00000000E+00  0.00000000E+00
  0.00000000E+00  0.00000000E+00  0.00000000E+00
  0.00000000E+00  0.00000000E+00  0.00000000E+00
  0.00000000E+00  0.00000000E+00  0.00000000E+00
  0.00000000E+00  0.00000000E+00  0.00000000E+00
  0.00000000E+00  0.00000000E+00  0.00000000E+00
  0.00000000E+00  0.00000000E+00  0.00000000E+00
  0.00000000E+00  0.00000000E+00  0.00000000E+00
  0.00000000E+00  0.00000000E+00  0.00000000E+00
  0.00000000E+00  0.00000000E+00  0.00000000E+00
  0.00000000E+00  0.00000000E+00  0.00000000E+00
  0.00000000E+00  0.00000000E+00  0.00000000E+00
  0.00000000E+00  0.00000000E+00  0.00000000E+00
  0.00000000E+00  0.00000000E+00  0.00000000E+00
  0.00000000E+00  0.00000000E+00  0.00000000E+00
  0.00000000E+00  0.00000000E+00  0.00000000E+00
  0.00000000E+00  0.00000000E+00  0.00000000E+00
  0.00000000E+00  0.00000000E+00  0.00000000E+00
  0.00000000E+00  0.00000000E+00  0.00000000E+00
  0.00000000E+00  0.00000000E+00  0.00000000E+00
  0.00000000E+00  0.00000000E+00  0.00000000E+00
  0.00000000E+00  0.00000000E+00  0.00000000E+00
  0.00000000E+00  0.00000000E+00  0.00000000E+00
  0.00000000E+00  0.00000000E+00  0.00000000E+00
  0.00000000E+00  0.00000000E+00  0.00000000E+00
  0.00000000E+00  0.00000000E+00  0.00000000E+00
  0.00000000E+00  0.00000000E+00  0.00000000E+00
  0.00000000E+00  0.00000000E+00  0.00000000E+00
  0.00000000E+00  0.00000000E+00  0.00000000E+00
  0.00000000E+00  0.00000000E+00  0.00000000E+00
  0.00000000E+00  0.00000000E+00  0.00000000E+00
  0.00000000E+00  0.00000000E+00  0.00000000E+00
  0.00000000E+00  0.00000000E+00  0.00000000E+00
  0.00000000E+00  0.00000000E+00  0.00000000E+00
  0.00000000E+00  0.00000000E+00  0.00000000E+00
  0.00000000E+00  0.00000000E+00  0.00000000E+00
  0.00000000E+00  0.00000000E+00  0.00000000E+00
  0.00000000E+00  0.00000000E+00  0.00000000E+00
  0.00000000E+00  0.00000000E+00  0.00000000E+00
  0.00000000E+00  0.00000000E+00  0.00000000E+00
  0.00000000E+00  0.00000000E+00  0.00000000E+00
  0.00000000E+00  0.00000000E+00  0.00000000E+00
  0.00000000E+00  0.00000000E+00  0.00000000E+00
  0.00000000E+00  0.00000000E+00  0.00000000E+00
  0.00000000E+00  0.00000000E+00  0.00000000E+00
  0.00000000E+00  0.00000000E+00  0.00000000E+00
  0.00000000E+00  0.00000000E+00  0.00000000E+00
  0.00000000E+00  0.00000000E+00  0.00000000E+00
  0.00000000E+00  0.00000000E+00  0.00000000E+00
  0.00000000E+00  0.00000000E+00  0.00000000E+00
  0.00000000E+00  0.00000000E+00  0.00000000E+00
  0.00000000E+00  0.00000000E+00  0.00000000E+00
  0.00000000E+00  0.00000000E+00  0.00000000E+00
  0.00000000E+00  0.00000000E+00  0.00000000E+00
  0.00000000E+00  0.00000000E+00  0.00000000E+00
  0.00000000E+00  0.00000000E+00  0.00000000E+00
  0.00000000E+00  0.00000000E+00  0.00000000E+00
  0.00000000E+00  0.00000000E+00  0.00000000E+00
  0.00000000E+00  0.00000000E+00  0.00000000E+00
  0.00000000E+00  0.00000000E+00  0.00000000E+00
  0.00000000E+00  0.00000000E+00  0.00000000E+00
  0.00000000E+00  0.00000000E+00  0.00000000E+00
  0.00000000E+00  0.00000000E+00  0.00000000E+00
  0.00000000E+00  0.00000000E+00  0.00000000E+00
  0.00000000E+00  0.00000000E+00  0.00000000E+00
  0.00000000E+00  0.00000000E+00  0.00000000E+00
  0.00000000E+00  0.00000000E+00  0.00000000E+00
  0.00000000E+00  0.00000000E+00  0.00000000E+00
  0.00000000E+00  0.00000000E+00  0.00000000E+00
  0.00000000E+00  0.00000000E+00  0.00000000E+00
  0.00000000E+00  0.00000000E+00  0.00000000E+00
  0.00000000E+00  0.00000000E+00  0.00000000E+00
  0.00000000E+00  0.00000000E+00  0.00000000E+00
  0.00000000E+00  0.00000000E+00  0.00000000E+00
  0.00000000E+00  0.00000000E+00  0.00000000E+00
  0.00000000E+00  0.00000000E+00  0.00000000E+00
  0.00000000E+00  0.00000000E+00  0.00000000E+00
  0.00000000E+00  0.00000000E+00  0.00000000E+00
  0.00000000E+00  0.00000000E+00  0.00000000E+00
  0.00000000E+00  0.00000000E+00  0.00000000E+00
  0.00000000E+00  0.00000000E+00  0.00000000E+00
  0.00000000E+00  0.00000000E+00  0.00000000E+00
  0.00000000E+00  0.00000000E+00  0.00000000E+00
  0.00000000E+00  0.00000000E+00  0.00000000E+00
  0.00000000E+00  0.00000000E+00  0.00000000E+00
  0.00000000E+00  0.00000000E+00  0.00000000E+00
  0.00000000E+00  0.00000000E+00  0.00000000E+00
  0.00000000E+00  0.00000000E+00  0.00000000E+00
  0.00000000E+00  0.00000000E+00  0.00000000E+00
  0.00000000E+00  0.00000000E+00  0.00000000E+00
  0.00000000E+00  0.00000000E+00  0.00000000E+00
  0.00000000E+00  0.00000000E+00  0.00000000E+00
  0.00000000E+00  0.00000000E+00  0.00000000E+00
  0.00000000E+00  0.00000000E+00  0.00000000E+00
  0.00000000E+00  0.00000000E+00  0.00000000E+00
  0.00000000E+00  0.00000000E+00  0.00000000E+00
  0.00000000E+00  0.00000000E+00  0.00000000E+00
  0.00000000E+00  0.00000000E+00  0.00000000E+00
  0.00000000E+00  0.00000000E+00  0.00000000E+00
  0.00000000E+00  0.00000000E+00  0.00000000E+00
  0.00000000E+00  0.00000000E+00  0.00000000E+00
  0.00000000E+00  0.00000000E+00  0.00000000E+00
  0.00000000E+00  0.00000000E+00  0.00000000E+00
  0.00000000E+00  0.00000000E+00  0.00000000E+00
  0.00000000E+00  0.00000000E+00  0.00000000E+00
  0.00000000E+00  0.00000000E+00  0.00000000E+00
  0.00000000E+00  0.00000000E+00  0.00000000E+00
  0.00000000E+00  0.00000000E+00  0.00000000E+00
  0.00000000E+00  0.00000000E+00  0.00000000E+00
  0.00000000E+00  0.00000000E+00  0.00000000E+00
  0.00000000E+00  0.00000000E+00  0.00000000E+00
  0.00000000E+00  0.00000000E+00  0.00000000E+00
  0.00000000E+00  0.00000000E+00  0.00000000E+00
  0.00000000E+00  0.00000000E+00  0.00000000E+00
  0.00000000E+00  0.00000000E+00  0.00000000E+00
  0.00000000E+00  0.00000000E+00  0.00000000E+00
  0.00000000E+00  0.00000000E+00  0.00000000E+00
  0.00000000E+00  0.00000000E+00  0.00000000E+00
  0.00000000E+00  0.00000000E+00  0.00000000E+00
  0.00000000E+00  0.00000000E+00  0.00000000E+00
  0.00000000E+00  0.00000000E+00  0.00000000E+00
  0.00000000E+00  0.00000000E+00  0.00000000E+00
  0.00000000E+00  0.00000000E+00  0.00000000E+00
  0.00000000E+00  0.00000000E+00  0.00000000E+00
  0.00000000E+00  0.00000000E+00  0.00000000E+00
  0.00000000E+00  0.00000000E+00  0.00000000E+00
  0.00000000E+00  0.00000000E+00  0.00000000E+00
  0.00000000E+00  0.00000000E+00  0.00000000E+00
  0.00000000E+00  0.00000000E+00  0.00000000E+00
  0.00000000E+00  0.00000000E+00  0.00000000E+00
  0.00000000E+00  0.00000000E+00  0.00000000E+00
  0.00000000E+00  0.00000000E+00  0.00000000E+00
  0.00000000E+00  0.00000000E+00  0.00000000E+00
  0.00000000E+00  0.00000000E+00  0.00000000E+00
  0.00000000E+00  0.00000000E+00  0.00000000E+00
