Mg33 O32                                
   1.00000000000000     
     8.4194560000000003    0.0000000000000000    0.0000000000000000
     0.0000000000000000    8.4194560000000003    0.0000000000000000
     0.0000000000000000    0.0000000000000000    8.4194560000000003
   Mg   O 
    33    32
Direct
  0.1250000000000000  0.1250000000000000  0.1250000000000000
  0.9680105457990535  0.9680105457990535  0.9680105457990535
  0.9994101063396386  0.9994101063396386  0.5004096379558476
  0.9994101063396386  0.5004096379558476  0.9994101063396386
  0.9994316658547220  0.5059096835707635  0.5059096835707635
  0.5004096379558476  0.9994101063396386  0.9994101063396386
  0.5059096835707635  0.9994316658547220  0.5059096835707635
  0.5059096835707635  0.5059096835707635  0.9994316658547220
  0.5001595094472577  0.5001595094472577  0.5001595094472577
  0.9680105457990535  0.2819894542009465  0.2819894542009465
  0.9994101063396386  0.2505898936603614  0.7495903620441524
  0.9994101063396386  0.7495903620441524  0.2505898936603614
  0.9994316658547220  0.7440903164292365  0.7440903164292365
  0.5004096379558476  0.2505898936603614  0.2505898936603614
  0.5059096835707635  0.2505683341452780  0.7440903164292365
  0.5059096835707635  0.7440903164292365  0.2505683341452780
  0.5001595094472577  0.7498404905527423  0.7498404905527423
  0.2819894542009465  0.9680105457990535  0.2819894542009465
  0.2505898936603614  0.9994101063396386  0.7495903620441524
  0.2505898936603614  0.5004096379558476  0.2505898936603614
  0.2505683341452780  0.5059096835707635  0.7440903164292365
  0.7495903620441524  0.9994101063396386  0.2505898936603614
  0.7440903164292365  0.9994316658547220  0.7440903164292365
  0.7440903164292365  0.5059096835707635  0.2505683341452780
  0.7498404905527423  0.5001595094472577  0.7498404905527423
  0.2819894542009465  0.2819894542009465  0.9680105457990535
  0.2505898936603614  0.2505898936603614  0.5004096379558476
  0.2505898936603614  0.7495903620441524  0.9994101063396386
  0.2505683341452780  0.7440903164292365  0.5059096835707635
  0.7495903620441524  0.2505898936603614  0.9994101063396386
  0.7440903164292365  0.2505683341452780  0.5059096835707635
  0.7440903164292365  0.7440903164292365  0.9994316658547220
  0.7498404905527423  0.7498404905527423  0.5001595094472577
  0.2539611072258197  0.9960388927741803  0.9960388927741803
  0.2532750097147840  0.9967249902852160  0.5081815024143239
  0.2532750097147840  0.5081815024143239  0.9967249902852160
  0.2497511173965066  0.5001466473684459  0.5001466473684459
  0.7418184975856761  0.9967249902852160  0.9967249902852160
  0.7498533526315541  0.0002488826034934  0.5001466473684459
  0.7498533526315541  0.5001466473684459  0.0002488826034934
  0.7496402623460696  0.5003597376539304  0.5003597376539304
  0.2539611072258197  0.2539611072258197  0.2539611072258197
  0.2532750097147840  0.2532750097147840  0.7418184975856761
  0.2532750097147840  0.7418184975856761  0.2532750097147840
  0.2497511173965066  0.7498533526315541  0.7498533526315541
  0.7418184975856761  0.2532750097147840  0.2532750097147840
  0.7498533526315541  0.2497511173965066  0.7498533526315541
  0.7498533526315541  0.7498533526315541  0.2497511173965066
  0.7496402623460696  0.7496402623460696  0.7496402623460696
  0.9960388927741803  0.9960388927741803  0.2539611072258197
  0.9967249902852160  0.9967249902852160  0.7418184975856761
  0.9967249902852160  0.5081815024143239  0.2532750097147840
  0.0002488826034934  0.5001466473684459  0.7498533526315541
  0.5081815024143239  0.9967249902852160  0.2532750097147840
  0.5001466473684459  0.0002488826034934  0.7498533526315541
  0.5001466473684459  0.5001466473684459  0.2497511173965066
  0.5003597376539304  0.5003597376539304  0.7496402623460696
  0.9960388927741803  0.2539611072258197  0.9960388927741803
  0.9967249902852160  0.2532750097147840  0.5081815024143239
  0.9967249902852160  0.7418184975856761  0.9967249902852160
  0.0002488826034934  0.7498533526315541  0.5001466473684459
  0.5081815024143239  0.2532750097147840  0.9967249902852160
  0.5001466473684459  0.2497511173965066  0.5001466473684459
  0.5001466473684459  0.7498533526315541  0.0002488826034934
  0.5003597376539304  0.7496402623460696  0.5003597376539304
 
  0.00000000E+00  0.00000000E+00  0.00000000E+00
  0.00000000E+00  0.00000000E+00  0.00000000E+00
  0.00000000E+00  0.00000000E+00  0.00000000E+00
  0.00000000E+00  0.00000000E+00  0.00000000E+00
  0.00000000E+00  0.00000000E+00  0.00000000E+00
  0.00000000E+00  0.00000000E+00  0.00000000E+00
  0.00000000E+00  0.00000000E+00  0.00000000E+00
  0.00000000E+00  0.00000000E+00  0.00000000E+00
  0.00000000E+00  0.00000000E+00  0.00000000E+00
  0.00000000E+00  0.00000000E+00  0.00000000E+00
  0.00000000E+00  0.00000000E+00  0.00000000E+00
  0.00000000E+00  0.00000000E+00  0.00000000E+00
  0.00000000E+00  0.00000000E+00  0.00000000E+00
  0.00000000E+00  0.00000000E+00  0.00000000E+00
  0.00000000E+00  0.00000000E+00  0.00000000E+00
  0.00000000E+00  0.00000000E+00  0.00000000E+00
  0.00000000E+00  0.00000000E+00  0.00000000E+00
  0.00000000E+00  0.00000000E+00  0.00000000E+00
  0.00000000E+00  0.00000000E+00  0.00000000E+00
  0.00000000E+00  0.00000000E+00  0.00000000E+00
  0.00000000E+00  0.00000000E+00  0.00000000E+00
  0.00000000E+00  0.00000000E+00  0.00000000E+00
  0.00000000E+00  0.00000000E+00  0.00000000E+00
  0.00000000E+00  0.00000000E+00  0.00000000E+00
  0.00000000E+00  0.00000000E+00  0.00000000E+00
  0.00000000E+00  0.00000000E+00  0.00000000E+00
  0.00000000E+00  0.00000000E+00  0.00000000E+00
  0.00000000E+00  0.00000000E+00  0.00000000E+00
  0.00000000E+00  0.00000000E+00  0.00000000E+00
  0.00000000E+00  0.00000000E+00  0.00000000E+00
  0.00000000E+00  0.00000000E+00  0.00000000E+00
  0.00000000E+00  0.00000000E+00  0.00000000E+00
  0.00000000E+00  0.00000000E+00  0.00000000E+00
  0.00000000E+00  0.00000000E+00  0.00000000E+00
  0.00000000E+00  0.00000000E+00  0.00000000E+00
  0.00000000E+00  0.00000000E+00  0.00000000E+00
  0.00000000E+00  0.00000000E+00  0.00000000E+00
  0.00000000E+00  0.00000000E+00  0.00000000E+00
  0.00000000E+00  0.00000000E+00  0.00000000E+00
  0.00000000E+00  0.00000000E+00  0.00000000E+00
  0.00000000E+00  0.00000000E+00  0.00000000E+00
  0.00000000E+00  0.00000000E+00  0.00000000E+00
  0.00000000E+00  0.00000000E+00  0.00000000E+00
  0.00000000E+00  0.00000000E+00  0.00000000E+00
  0.00000000E+00  0.00000000E+00  0.00000000E+00
  0.00000000E+00  0.00000000E+00  0.00000000E+00
  0.00000000E+00  0.00000000E+00  0.00000000E+00
  0.00000000E+00  0.00000000E+00  0.00000000E+00
  0.00000000E+00  0.00000000E+00  0.00000000E+00
  0.00000000E+00  0.00000000E+00  0.00000000E+00
  0.00000000E+00  0.00000000E+00  0.00000000E+00
  0.00000000E+00  0.00000000E+00  0.00000000E+00
  0.00000000E+00  0.00000000E+00  0.00000000E+00
  0.00000000E+00  0.00000000E+00  0.00000000E+00
  0.00000000E+00  0.00000000E+00  0.00000000E+00
  0.00000000E+00  0.00000000E+00  0.00000000E+00
  0.00000000E+00  0.00000000E+00  0.00000000E+00
  0.00000000E+00  0.00000000E+00  0.00000000E+00
  0.00000000E+00  0.00000000E+00  0.00000000E+00
  0.00000000E+00  0.00000000E+00  0.00000000E+00
  0.00000000E+00  0.00000000E+00  0.00000000E+00
  0.00000000E+00  0.00000000E+00  0.00000000E+00
  0.00000000E+00  0.00000000E+00  0.00000000E+00
  0.00000000E+00  0.00000000E+00  0.00000000E+00
  0.00000000E+00  0.00000000E+00  0.00000000E+00
