Li2 O3 Ti1-2x2x1                        
   1.00000000000000     
    10.1892954901661401    0.0000000000000000   -0.0166431489875300
     0.0000000000000000   17.6911782476998383    0.0000000000000000
    -1.7244801427344600    0.0000000000000000    9.6667443259936991
   Li   Ti   O 
    64    32    96
Direct
  0.1206864180235598  0.0401580340718368  0.9994598194223272
  0.6206864180235598  0.0401580340718368  0.9994598194223272
  0.1206864180235598  0.5401580340718368  0.9994598194223272
  0.6206864180235598  0.5401580340718368  0.9994598194223272
  0.3793135669764425  0.4598419549281729  0.0005401805776728
  0.8793135669764425  0.4598419549281729  0.0005401805776728
  0.3793135669764425  0.9598419549281729  0.0005401805776728
  0.8793135669764425  0.9598419549281729  0.0005401805776728
  0.3793135669764425  0.0401580340718368  0.5005401805776728
  0.8793135669764425  0.0401580340718368  0.5005401805776728
  0.3793135669764425  0.5401580340718368  0.5005401805776728
  0.8793135669764425  0.5401580340718368  0.5005401805776728
  0.1206864180235598  0.4598419549281729  0.4994598194223272
  0.6206864180235598  0.4598419549281729  0.4994598194223272
  0.1206864180235598  0.9598419549281729  0.4994598194223272
  0.6206864180235598  0.9598419549281729  0.4994598194223272
  0.3706864330235575  0.2901580450718271  0.9994598194223272
  0.8706864330235575  0.2901580450718271  0.9994598194223272
  0.3706864330235575  0.7901580450718271  0.9994598194223272
  0.8706864330235575  0.7901580450718271  0.9994598194223272
  0.1293135819764402  0.2098419699281635  0.0005401805776728
  0.6293135819764402  0.2098419699281635  0.0005401805776728
  0.1293135819764402  0.7098419699281635  0.0005401805776728
  0.6293135819764402  0.7098419699281635  0.0005401805776728
  0.1293135819764402  0.2901580450718271  0.5005401805776728
  0.6293135819764402  0.2901580450718271  0.5005401805776728
  0.1293135819764402  0.7901580450718271  0.5005401805776728
  0.6293135819764402  0.7901580450718271  0.5005401805776728
  0.3706864330235575  0.2098419699281635  0.4994598194223272
  0.8706864330235575  0.2098419699281635  0.4994598194223272
  0.3706864330235575  0.7098419699281635  0.4994598194223272
  0.8706864330235575  0.7098419699281635  0.4994598194223272
  0.1250000000000000  0.1250000000000000  0.5000000000000000
  0.6250000000000000  0.1250000000000000  0.5000000000000000
  0.1250000000000000  0.6250000000000000  0.5000000000000000
  0.6250000000000000  0.6250000000000000  0.5000000000000000
  0.3750000000000000  0.3750000000000000  0.5000000000000000
  0.8750000000000000  0.3750000000000000  0.5000000000000000
  0.3750000000000000  0.8750000000000000  0.5000000000000000
  0.8750000000000000  0.8750000000000000  0.5000000000000000
  0.3750000000000000  0.1250000000000000  0.0000000000000000
  0.8750000000000000  0.1250000000000000  0.0000000000000000
  0.3750000000000000  0.6250000000000000  0.0000000000000000
  0.8750000000000000  0.6250000000000000  0.0000000000000000
  0.1250000000000000  0.3750000000000000  0.0000000000000000
  0.6250000000000000  0.3750000000000000  0.0000000000000000
  0.1250000000000000  0.8750000000000000  0.0000000000000000
  0.6250000000000000  0.8750000000000000  0.0000000000000000
  0.0000000000000000  0.0420244700233710  0.2500000000000000
  0.5000000000000000  0.0420244700233710  0.2500000000000000
  0.0000000000000000  0.5420244700233710  0.2500000000000000
  0.5000000000000000  0.5420244700233710  0.2500000000000000
  0.0000000000000000  0.4579755224766302  0.7500000000000000
  0.5000000000000000  0.4579755224766302  0.7500000000000000
  0.0000000000000000  0.9579755224766302  0.7500000000000000
  0.5000000000000000  0.9579755224766302  0.7500000000000000
  0.2500000000000000  0.2920244775233698  0.2500000000000000
  0.7500000000000000  0.2920244775233698  0.2500000000000000
  0.2500000000000000  0.7920244775233698  0.2500000000000000
  0.7500000000000000  0.7920244775233698  0.2500000000000000
  0.2500000000000000  0.2079755224766302  0.7500000000000000
  0.7500000000000000  0.2079755224766302  0.7500000000000000
  0.2500000000000000  0.7079755224766302  0.7500000000000000
  0.7500000000000000  0.7079755224766302  0.7500000000000000
  0.0000000000000000  0.2085977028143517  0.2500000000000000
  0.5000000000000000  0.2085977028143517  0.2500000000000000
  0.0000000000000000  0.7085977028143517  0.2500000000000000
  0.5000000000000000  0.7085977028143517  0.2500000000000000
  0.0000000000000000  0.2914023121856530  0.7500000000000000
  0.5000000000000000  0.2914023121856530  0.7500000000000000
  0.0000000000000000  0.7914023121856530  0.7500000000000000
  0.5000000000000000  0.7914023121856530  0.7500000000000000
  0.2500000000000000  0.4585976878143470  0.2500000000000000
  0.7500000000000000  0.4585976878143470  0.2500000000000000
  0.2500000000000000  0.9585976878143470  0.2500000000000000
  0.7500000000000000  0.9585976878143470  0.2500000000000000
  0.2500000000000000  0.0414022971856483  0.7500000000000000
  0.7500000000000000  0.0414022971856483  0.7500000000000000
  0.2500000000000000  0.5414022971856483  0.7500000000000000
  0.7500000000000000  0.5414022971856483  0.7500000000000000
  0.0000000000000000  0.3747899333361104  0.2500000000000000
  0.5000000000000000  0.3747899333361104  0.2500000000000000
  0.0000000000000000  0.8747899333361104  0.2500000000000000
  0.5000000000000000  0.8747899333361104  0.2500000000000000
  0.0000000000000000  0.1252100666638896  0.7500000000000000
  0.5000000000000000  0.1252100666638896  0.7500000000000000
  0.0000000000000000  0.6252100666638896  0.7500000000000000
  0.5000000000000000  0.6252100666638896  0.7500000000000000
  0.2500000000000000  0.1247899333361104  0.2500000000000000
  0.7500000000000000  0.1247899333361104  0.2500000000000000
  0.2500000000000000  0.6247899333361104  0.2500000000000000
  0.7500000000000000  0.6247899333361104  0.2500000000000000
  0.2500000000000000  0.3752100666638896  0.7500000000000000
  0.7500000000000000  0.3752100666638896  0.7500000000000000
  0.2500000000000000  0.8752100666638896  0.7500000000000000
  0.7500000000000000  0.8752100666638896  0.7500000000000000
  0.0699128762716228  0.1313012500390087  0.1360756622499792
  0.5699128762716228  0.1313012500390087  0.1360756622499792
  0.0699128762716228  0.6313012500390087  0.1360756622499792
  0.5699128762716228  0.6313012500390087  0.1360756622499792
  0.4300871092283813  0.3686987499609913  0.8639243237500196
  0.9300871092283813  0.3686987499609913  0.8639243237500196
  0.4300871092283813  0.8686987499609913  0.8639243237500196
  0.9300871092283813  0.8686987499609913  0.8639243237500196
  0.4300871092283813  0.1313012500390087  0.3639243237500196
  0.9300871092283813  0.1313012500390087  0.3639243237500196
  0.4300871092283813  0.6313012500390087  0.3639243237500196
  0.9300871092283813  0.6313012500390087  0.3639243237500196
  0.0699128762716228  0.3686987499609913  0.6360756762499804
  0.5699128762716228  0.3686987499609913  0.6360756762499804
  0.0699128762716228  0.8686987499609913  0.6360756762499804
  0.5699128762716228  0.8686987499609913  0.6360756762499804
  0.3199128907716187  0.3813012500390087  0.1360756622499792
  0.8199128907716187  0.3813012500390087  0.1360756622499792
  0.3199128907716187  0.8813012500390087  0.1360756622499792
  0.8199128907716187  0.8813012500390087  0.1360756622499792
  0.1800871237283772  0.1186987499609913  0.8639243237500196
  0.6800871237283772  0.1186987499609913  0.8639243237500196
  0.1800871237283772  0.6186987499609913  0.8639243237500196
  0.6800871237283772  0.6186987499609913  0.8639243237500196
  0.1800871237283772  0.3813012500390087  0.3639243237500196
  0.6800871237283772  0.3813012500390087  0.3639243237500196
  0.1800871237283772  0.8813012500390087  0.3639243237500196
  0.6800871237283772  0.8813012500390087  0.3639243237500196
  0.3199128907716187  0.1186987499609913  0.6360756762499804
  0.8199128907716187  0.1186987499609913  0.6360756762499804
  0.3199128907716187  0.6186987499609913  0.6360756762499804
  0.8199128907716187  0.6186987499609913  0.6360756762499804
  0.0530744804906220  0.2919813990261488  0.1362612286830682
  0.5530744804906220  0.2919813990261488  0.1362612286830682
  0.0530744804906220  0.7919813990261488  0.1362612286830682
  0.5530744804906220  0.7919813990261488  0.1362612286830682
  0.4469255195093780  0.2080186009738512  0.8637387573169306
  0.9469255195093780  0.2080186009738512  0.8637387573169306
  0.4469255195093780  0.7080186009738512  0.8637387573169306
  0.9469255195093780  0.7080186009738512  0.8637387573169306
  0.4469255195093780  0.2919813990261488  0.3637387573169306
  0.9469255195093780  0.2919813990261488  0.3637387573169306
  0.4469255195093780  0.7919813990261488  0.3637387573169306
  0.9469255195093780  0.7919813990261488  0.3637387573169306
  0.0530744804906220  0.2080186009738512  0.6362612426830694
  0.5530744804906220  0.2080186009738512  0.6362612426830694
  0.0530744804906220  0.7080186009738512  0.6362612426830694
  0.5530744804906220  0.7080186009738512  0.6362612426830694
  0.3030744804906220  0.0419813990261488  0.1362612286830682
  0.8030744804906220  0.0419813990261488  0.1362612286830682
  0.3030744804906220  0.5419813990261488  0.1362612286830682
  0.8030744804906220  0.5419813990261488  0.1362612286830682
  0.1969255195093780  0.4580186009738512  0.8637387573169306
  0.6969255195093780  0.4580186009738512  0.8637387573169306
  0.1969255195093780  0.9580186009738512  0.8637387573169306
  0.6969255195093780  0.9580186009738512  0.8637387573169306
  0.1969255195093780  0.0419813990261488  0.3637387573169306
  0.6969255195093780  0.0419813990261488  0.3637387573169306
  0.1969255195093780  0.5419813990261488  0.3637387573169306
  0.6969255195093780  0.5419813990261488  0.3637387573169306
  0.3030744804906220  0.4580186009738512  0.6362612426830694
  0.8030744804906220  0.4580186009738512  0.6362612426830694
  0.3030744804906220  0.9580186009738512  0.6362612426830694
  0.8030744804906220  0.9580186009738512  0.6362612426830694
  0.0692814728097275  0.4529575266668999  0.1337352765370170
  0.5692814728097275  0.4529575266668999  0.1337352765370170
  0.0692814728097275  0.9529575266668999  0.1337352765370170
  0.5692814728097275  0.9529575266668999  0.1337352765370170
  0.4307185201902684  0.0470424733331001  0.8662647384629878
  0.9307185201902684  0.0470424733331001  0.8662647384629878
  0.4307185201902684  0.5470424733331001  0.8662647384629878
  0.9307185201902684  0.5470424733331001  0.8662647384629878
  0.4307185201902684  0.4529575266668999  0.3662647384629807
  0.9307185201902684  0.4529575266668999  0.3662647384629807
  0.4307185201902684  0.9529575266668999  0.3662647384629807
  0.9307185201902684  0.9529575266668999  0.3662647384629807
  0.0692814728097275  0.0470424733331001  0.6337352615370122
  0.5692814728097275  0.0470424733331001  0.6337352615370122
  0.0692814728097275  0.5470424733331001  0.6337352615370122
  0.5692814728097275  0.5470424733331001  0.6337352615370122
  0.3192814798097316  0.2029575266668999  0.1337352765370170
  0.8192814798097316  0.2029575266668999  0.1337352765370170
  0.3192814798097316  0.7029575266668999  0.1337352765370170
  0.8192814798097316  0.7029575266668999  0.1337352765370170
  0.1807185201902684  0.2970424733331001  0.8662647384629878
  0.6807185201902684  0.2970424733331001  0.8662647384629878
  0.1807185201902684  0.7970424733331001  0.8662647384629878
  0.6807185201902684  0.7970424733331001  0.8662647384629878
  0.1807185201902684  0.2029575266668999  0.3662647384629807
  0.6807185201902684  0.2029575266668999  0.3662647384629807
  0.1807185201902684  0.7029575266668999  0.3662647384629807
  0.6807185201902684  0.7029575266668999  0.3662647384629807
  0.3192814798097316  0.2970424733331001  0.6337352615370122
  0.8192814798097316  0.2970424733331001  0.6337352615370122
  0.3192814798097316  0.7970424733331001  0.6337352615370122
  0.8192814798097316  0.7970424733331001  0.6337352615370122
 
  0.00000000E+00  0.00000000E+00  0.00000000E+00
  0.00000000E+00  0.00000000E+00  0.00000000E+00
  0.00000000E+00  0.00000000E+00  0.00000000E+00
  0.00000000E+00  0.00000000E+00  0.00000000E+00
  0.00000000E+00  0.00000000E+00  0.00000000E+00
  0.00000000E+00  0.00000000E+00  0.00000000E+00
  0.00000000E+00  0.00000000E+00  0.00000000E+00
  0.00000000E+00  0.00000000E+00  0.00000000E+00
  0.00000000E+00  0.00000000E+00  0.00000000E+00
  0.00000000E+00  0.00000000E+00  0.00000000E+00
  0.00000000E+00  0.00000000E+00  0.00000000E+00
  0.00000000E+00  0.00000000E+00  0.00000000E+00
  0.00000000E+00  0.00000000E+00  0.00000000E+00
  0.00000000E+00  0.00000000E+00  0.00000000E+00
  0.00000000E+00  0.00000000E+00  0.00000000E+00
  0.00000000E+00  0.00000000E+00  0.00000000E+00
  0.00000000E+00  0.00000000E+00  0.00000000E+00
  0.00000000E+00  0.00000000E+00  0.00000000E+00
  0.00000000E+00  0.00000000E+00  0.00000000E+00
  0.00000000E+00  0.00000000E+00  0.00000000E+00
  0.00000000E+00  0.00000000E+00  0.00000000E+00
  0.00000000E+00  0.00000000E+00  0.00000000E+00
  0.00000000E+00  0.00000000E+00  0.00000000E+00
  0.00000000E+00  0.00000000E+00  0.00000000E+00
  0.00000000E+00  0.00000000E+00  0.00000000E+00
  0.00000000E+00  0.00000000E+00  0.00000000E+00
  0.00000000E+00  0.00000000E+00  0.00000000E+00
  0.00000000E+00  0.00000000E+00  0.00000000E+00
  0.00000000E+00  0.00000000E+00  0.00000000E+00
  0.00000000E+00  0.00000000E+00  0.00000000E+00
  0.00000000E+00  0.00000000E+00  0.00000000E+00
  0.00000000E+00  0.00000000E+00  0.00000000E+00
  0.00000000E+00  0.00000000E+00  0.00000000E+00
  0.00000000E+00  0.00000000E+00  0.00000000E+00
  0.00000000E+00  0.00000000E+00  0.00000000E+00
  0.00000000E+00  0.00000000E+00  0.00000000E+00
  0.00000000E+00  0.00000000E+00  0.00000000E+00
  0.00000000E+00  0.00000000E+00  0.00000000E+00
  0.00000000E+00  0.00000000E+00  0.00000000E+00
  0.00000000E+00  0.00000000E+00  0.00000000E+00
  0.00000000E+00  0.00000000E+00  0.00000000E+00
  0.00000000E+00  0.00000000E+00  0.00000000E+00
  0.00000000E+00  0.00000000E+00  0.00000000E+00
  0.00000000E+00  0.00000000E+00  0.00000000E+00
  0.00000000E+00  0.00000000E+00  0.00000000E+00
  0.00000000E+00  0.00000000E+00  0.00000000E+00
  0.00000000E+00  0.00000000E+00  0.00000000E+00
  0.00000000E+00  0.00000000E+00  0.00000000E+00
  0.00000000E+00  0.00000000E+00  0.00000000E+00
  0.00000000E+00  0.00000000E+00  0.00000000E+00
  0.00000000E+00  0.00000000E+00  0.00000000E+00
  0.00000000E+00  0.00000000E+00  0.00000000E+00
  0.00000000E+00  0.00000000E+00  0.00000000E+00
  0.00000000E+00  0.00000000E+00  0.00000000E+00
  0.00000000E+00  0.00000000E+00  0.00000000E+00
  0.00000000E+00  0.00000000E+00  0.00000000E+00
  0.00000000E+00  0.00000000E+00  0.00000000E+00
  0.00000000E+00  0.00000000E+00  0.00000000E+00
  0.00000000E+00  0.00000000E+00  0.00000000E+00
  0.00000000E+00  0.00000000E+00  0.00000000E+00
  0.00000000E+00  0.00000000E+00  0.00000000E+00
  0.00000000E+00  0.00000000E+00  0.00000000E+00
  0.00000000E+00  0.00000000E+00  0.00000000E+00
  0.00000000E+00  0.00000000E+00  0.00000000E+00
  0.00000000E+00  0.00000000E+00  0.00000000E+00
  0.00000000E+00  0.00000000E+00  0.00000000E+00
  0.00000000E+00  0.00000000E+00  0.00000000E+00
  0.00000000E+00  0.00000000E+00  0.00000000E+00
  0.00000000E+00  0.00000000E+00  0.00000000E+00
  0.00000000E+00  0.00000000E+00  0.00000000E+00
  0.00000000E+00  0.00000000E+00  0.00000000E+00
  0.00000000E+00  0.00000000E+00  0.00000000E+00
  0.00000000E+00  0.00000000E+00  0.00000000E+00
  0.00000000E+00  0.00000000E+00  0.00000000E+00
  0.00000000E+00  0.00000000E+00  0.00000000E+00
  0.00000000E+00  0.00000000E+00  0.00000000E+00
  0.00000000E+00  0.00000000E+00  0.00000000E+00
  0.00000000E+00  0.00000000E+00  0.00000000E+00
  0.00000000E+00  0.00000000E+00  0.00000000E+00
  0.00000000E+00  0.00000000E+00  0.00000000E+00
  0.00000000E+00  0.00000000E+00  0.00000000E+00
  0.00000000E+00  0.00000000E+00  0.00000000E+00
  0.00000000E+00  0.00000000E+00  0.00000000E+00
  0.00000000E+00  0.00000000E+00  0.00000000E+00
  0.00000000E+00  0.00000000E+00  0.00000000E+00
  0.00000000E+00  0.00000000E+00  0.00000000E+00
  0.00000000E+00  0.00000000E+00  0.00000000E+00
  0.00000000E+00  0.00000000E+00  0.00000000E+00
  0.00000000E+00  0.00000000E+00  0.00000000E+00
  0.00000000E+00  0.00000000E+00  0.00000000E+00
  0.00000000E+00  0.00000000E+00  0.00000000E+00
  0.00000000E+00  0.00000000E+00  0.00000000E+00
  0.00000000E+00  0.00000000E+00  0.00000000E+00
  0.00000000E+00  0.00000000E+00  0.00000000E+00
  0.00000000E+00  0.00000000E+00  0.00000000E+00
  0.00000000E+00  0.00000000E+00  0.00000000E+00
  0.00000000E+00  0.00000000E+00  0.00000000E+00
  0.00000000E+00  0.00000000E+00  0.00000000E+00
  0.00000000E+00  0.00000000E+00  0.00000000E+00
  0.00000000E+00  0.00000000E+00  0.00000000E+00
  0.00000000E+00  0.00000000E+00  0.00000000E+00
  0.00000000E+00  0.00000000E+00  0.00000000E+00
  0.00000000E+00  0.00000000E+00  0.00000000E+00
  0.00000000E+00  0.00000000E+00  0.00000000E+00
  0.00000000E+00  0.00000000E+00  0.00000000E+00
  0.00000000E+00  0.00000000E+00  0.00000000E+00
  0.00000000E+00  0.00000000E+00  0.00000000E+00
  0.00000000E+00  0.00000000E+00  0.00000000E+00
  0.00000000E+00  0.00000000E+00  0.00000000E+00
  0.00000000E+00  0.00000000E+00  0.00000000E+00
  0.00000000E+00  0.00000000E+00  0.00000000E+00
  0.00000000E+00  0.00000000E+00  0.00000000E+00
  0.00000000E+00  0.00000000E+00  0.00000000E+00
  0.00000000E+00  0.00000000E+00  0.00000000E+00
  0.00000000E+00  0.00000000E+00  0.00000000E+00
  0.00000000E+00  0.00000000E+00  0.00000000E+00
  0.00000000E+00  0.00000000E+00  0.00000000E+00
  0.00000000E+00  0.00000000E+00  0.00000000E+00
  0.00000000E+00  0.00000000E+00  0.00000000E+00
  0.00000000E+00  0.00000000E+00  0.00000000E+00
  0.00000000E+00  0.00000000E+00  0.00000000E+00
  0.00000000E+00  0.00000000E+00  0.00000000E+00
  0.00000000E+00  0.00000000E+00  0.00000000E+00
  0.00000000E+00  0.00000000E+00  0.00000000E+00
  0.00000000E+00  0.00000000E+00  0.00000000E+00
  0.00000000E+00  0.00000000E+00  0.00000000E+00
  0.00000000E+00  0.00000000E+00  0.00000000E+00
  0.00000000E+00  0.00000000E+00  0.00000000E+00
  0.00000000E+00  0.00000000E+00  0.00000000E+00
  0.00000000E+00  0.00000000E+00  0.00000000E+00
  0.00000000E+00  0.00000000E+00  0.00000000E+00
  0.00000000E+00  0.00000000E+00  0.00000000E+00
  0.00000000E+00  0.00000000E+00  0.00000000E+00
  0.00000000E+00  0.00000000E+00  0.00000000E+00
  0.00000000E+00  0.00000000E+00  0.00000000E+00
  0.00000000E+00  0.00000000E+00  0.00000000E+00
  0.00000000E+00  0.00000000E+00  0.00000000E+00
  0.00000000E+00  0.00000000E+00  0.00000000E+00
  0.00000000E+00  0.00000000E+00  0.00000000E+00
  0.00000000E+00  0.00000000E+00  0.00000000E+00
  0.00000000E+00  0.00000000E+00  0.00000000E+00
  0.00000000E+00  0.00000000E+00  0.00000000E+00
  0.00000000E+00  0.00000000E+00  0.00000000E+00
  0.00000000E+00  0.00000000E+00  0.00000000E+00
  0.00000000E+00  0.00000000E+00  0.00000000E+00
  0.00000000E+00  0.00000000E+00  0.00000000E+00
  0.00000000E+00  0.00000000E+00  0.00000000E+00
  0.00000000E+00  0.00000000E+00  0.00000000E+00
  0.00000000E+00  0.00000000E+00  0.00000000E+00
  0.00000000E+00  0.00000000E+00  0.00000000E+00
  0.00000000E+00  0.00000000E+00  0.00000000E+00
  0.00000000E+00  0.00000000E+00  0.00000000E+00
  0.00000000E+00  0.00000000E+00  0.00000000E+00
  0.00000000E+00  0.00000000E+00  0.00000000E+00
  0.00000000E+00  0.00000000E+00  0.00000000E+00
  0.00000000E+00  0.00000000E+00  0.00000000E+00
  0.00000000E+00  0.00000000E+00  0.00000000E+00
  0.00000000E+00  0.00000000E+00  0.00000000E+00
  0.00000000E+00  0.00000000E+00  0.00000000E+00
  0.00000000E+00  0.00000000E+00  0.00000000E+00
  0.00000000E+00  0.00000000E+00  0.00000000E+00
  0.00000000E+00  0.00000000E+00  0.00000000E+00
  0.00000000E+00  0.00000000E+00  0.00000000E+00
  0.00000000E+00  0.00000000E+00  0.00000000E+00
  0.00000000E+00  0.00000000E+00  0.00000000E+00
  0.00000000E+00  0.00000000E+00  0.00000000E+00
  0.00000000E+00  0.00000000E+00  0.00000000E+00
  0.00000000E+00  0.00000000E+00  0.00000000E+00
  0.00000000E+00  0.00000000E+00  0.00000000E+00
  0.00000000E+00  0.00000000E+00  0.00000000E+00
  0.00000000E+00  0.00000000E+00  0.00000000E+00
  0.00000000E+00  0.00000000E+00  0.00000000E+00
  0.00000000E+00  0.00000000E+00  0.00000000E+00
  0.00000000E+00  0.00000000E+00  0.00000000E+00
  0.00000000E+00  0.00000000E+00  0.00000000E+00
  0.00000000E+00  0.00000000E+00  0.00000000E+00
  0.00000000E+00  0.00000000E+00  0.00000000E+00
  0.00000000E+00  0.00000000E+00  0.00000000E+00
  0.00000000E+00  0.00000000E+00  0.00000000E+00
  0.00000000E+00  0.00000000E+00  0.00000000E+00
  0.00000000E+00  0.00000000E+00  0.00000000E+00
  0.00000000E+00  0.00000000E+00  0.00000000E+00
  0.00000000E+00  0.00000000E+00  0.00000000E+00
  0.00000000E+00  0.00000000E+00  0.00000000E+00
  0.00000000E+00  0.00000000E+00  0.00000000E+00
  0.00000000E+00  0.00000000E+00  0.00000000E+00
  0.00000000E+00  0.00000000E+00  0.00000000E+00
  0.00000000E+00  0.00000000E+00  0.00000000E+00
  0.00000000E+00  0.00000000E+00  0.00000000E+00
  0.00000000E+00  0.00000000E+00  0.00000000E+00
  0.00000000E+00  0.00000000E+00  0.00000000E+00
  0.00000000E+00  0.00000000E+00  0.00000000E+00
