Li2 O3 Ti1-2x2x1                        
   1.00000000000000     
    10.1892954901661401    0.0000000000000000   -0.0166431489875300
     0.0000000000000000   17.6911782476998383    0.0000000000000000
    -1.7244801427344600    0.0000000000000000    9.6667443259936991
   Li   Ti   O 
    64    32    95
Direct
  0.1199421129465890  0.0412480969579576  0.0026316111063451
  0.6194544892664311  0.0426053753178550  0.0020310148565414
  0.1210496498463129  0.5392871099024674  0.0000799265368130
  0.6211018588574220  0.5388498652678280  0.9998058746622149
  0.3790407843731174  0.4596317082220693  0.0006997190119904
  0.8792352885695820  0.4586705833908979  0.0008700366857610
  0.3801155288070888  0.9620069478183524  0.0024981616261144
  0.8790134714870206  0.9687939500735112  0.0126651460605913
  0.3810417221443672  0.0413692506340979  0.4984628829754527
  0.8829846732992124  0.0448608607545253  0.4944102220150128
  0.3788163372308233  0.5388742686622479  0.4997053358219574
  0.8781452478491474  0.5374122230853402  0.4995209660406630
  0.1201763054579246  0.4589718048516573  0.4980251708683525
  0.6197570970713926  0.4591592132074140  0.4981933808392753
  0.1224788357636371  0.9639142635720717  0.4932822136416775
  0.6223032785679976  0.9580638758082713  0.5007519253080588
  0.3702715494586926  0.2907795148153269  0.9998941544201259
  0.8704866849361466  0.2908282329387291  0.0007919166431378
  0.3752447207083804  0.7892458058001210  0.0011631468074853
  0.8708373753945224  0.7880575569105019  0.9978288573761915
  0.1289177755961077  0.2118754058657686  0.0031673162579509
  0.6287343103832299  0.2114392389811073  0.0013735936802775
  0.1342800392146373  0.7048783619079089  0.0063846126485885
  0.6290873192549782  0.7088746334328917  0.0036362821163607
  0.1294183453894178  0.2908145246624514  0.4992275867181064
  0.6288162556375383  0.2903761174686323  0.4990886869110085
  0.1245048860746252  0.7893610764809225  0.4994560597935802
  0.6087221096294044  0.7874858119005879  0.4900031149736250
  0.3703820319524169  0.2110319236779858  0.4972489001813116
  0.8707493100009245  0.2114404841321331  0.4975293818553936
  0.3670613298800518  0.7078667902722628  0.4985176566372473
  0.8753659092098829  0.6978225691107554  0.4908210351036359
  0.1262000787575488  0.1264199832549906  0.5003818296515945
  0.6204247550967565  0.1255211169429273  0.4956527722583388
  0.1261191800768842  0.6219250774093297  0.4952157599503622
  0.6254274788272767  0.6248709182818075  0.5003538616391623
  0.3741674327830395  0.3747901626414176  0.4982379988546342
  0.8745610937733375  0.3744953511982700  0.4987599453976159
  0.3695693103537323  0.8730925597764525  0.4915896278937737
  0.8839929427610542  0.8843366503975361  0.4944398166239168
  0.3771557177764819  0.1258437309194562  0.0017097769709835
  0.8754367284323195  0.1272275594214989  0.9993167641734715
  0.3757345045365952  0.6233596057900428  0.0024233390567048
  0.8751314966577510  0.6219953551155868  0.0046492771849884
  0.1247653397993815  0.3749673793239268  0.0005025655251032
  0.6248446595621786  0.3747954021298199  0.0003358776491567
  0.1411649734352807  0.8772139377994179  0.0097848177989093
  0.6219452513159425  0.8717452701184030  0.0093512511678497
  0.0003855766544589  0.0434812233637345  0.2512551170408557
  0.5002023419603177  0.0426845233847715  0.2508096155085582
  0.9997270654274786  0.5415476141730622  0.2499143605414531
  0.5000022670366633  0.5415667607336303  0.2507045742210110
  0.9993090564273857  0.4571315871335173  0.7498172555057252
  0.4989127365761163  0.4568939841790751  0.7496622753982223
  0.9984829912587827  0.9564333283792692  0.7485212732708675
  0.4961433476115999  0.9624899948409791  0.7519233347797680
  0.2497989510110727  0.2924164139652703  0.2499439407993833
  0.7498951774667475  0.2923230338423295  0.2495921580396896
  0.2502277153373171  0.7915873385685970  0.2507457389091741
  0.7508107030175708  0.7917941026294812  0.2535601375468701
  0.2502801942463222  0.2096431055313488  0.7495400979263849
  0.7489482539221726  0.2100389202097048  0.7498624752058660
  0.2573320107971995  0.7044802610436278  0.7494986190192066
  0.7464843939287604  0.6995497891820293  0.7698605335405446
  0.0002263157675557  0.2089263859419148  0.2503980416955613
  0.5001909450666346  0.2093511910589925  0.2497399866944860
  0.9998786800092319  0.7085198566022086  0.2488117498416784
  0.4992520858965435  0.7080711310724226  0.2493504697403779
  0.0002310077152927  0.2922673137648744  0.7498787088604431
  0.4990563162248094  0.2920607565096702  0.7488054352174913
  0.0265806327821352  0.7885847546103619  0.7675737351727321
  0.5013800149359469  0.7880653724410749  0.7485071131649192
  0.2497079622388938  0.4580750869308901  0.2490735820938141
  0.7497718808302096  0.4580450509995231  0.2498178751609217
  0.2500962974886818  0.9598269577150518  0.2511439215204376
  0.7497767447837305  0.9593422995703307  0.2516807099034892
  0.2485383521382971  0.0435273049147540  0.7517202456593779
  0.7509999378763723  0.0471689762916654  0.7440385602525694
  0.2478442081194032  0.5408889724062007  0.7493295028401690
  0.7486266788704370  0.5392606523383350  0.7491373968620252
  0.9998337877107701  0.3748426027988003  0.2497989920855801
  0.4997848928961233  0.3751407152088859  0.2494647536769392
  0.9997148553139539  0.8746956109508446  0.2473484849778131
  0.4995098452361972  0.8755049227225129  0.2498443156926911
  0.0022078985256329  0.1266193981420045  0.7518317312992124
  0.4985431915132281  0.1265823110170246  0.7493662313606535
  0.9969085326862270  0.6235202589274209  0.7498865362405027
  0.4993455378765432  0.6223156659407323  0.7498062880026310
  0.2503719660110590  0.1258527839221060  0.2491116887653320
  0.7496739136470580  0.1257538011169927  0.2488124894840666
  0.2502502262188742  0.6239265858925407  0.2511586207476100
  0.7494397212078070  0.6239302381674037  0.2492017330121357
  0.2497053303748089  0.3752492915442502  0.7496261121291141
  0.7495256001943105  0.3740762403681330  0.7495938805267883
  0.2582885639278416  0.8791126924225381  0.7435677723261094
  0.7389516774674192  0.8848442872851336  0.7682990143781439
  0.0698651022633001  0.1314364482086106  0.1360084409107856
  0.5697864281617484  0.1314182721345034  0.1354045988255237
  0.0698758937259427  0.6313401296988772  0.1355175387235263
  0.5695923274482624  0.6313070110360997  0.1365226909156192
  0.4294135448587966  0.3688991673111843  0.8631549482705765
  0.9297420939962251  0.3686430151150688  0.8636167233665404
  0.4321222193765522  0.8692107787463144  0.8600526549491363
  0.9212273851536423  0.8616976919611901  0.8454186496730145
  0.4301993493738152  0.1314779383029645  0.3636965762918933
  0.9300015682375289  0.1316443313546571  0.3641179089003117
  0.4300972075687781  0.6313535876418968  0.3642547726304457
  0.9311136676078959  0.6299551904339040  0.3619726565874473
  0.0692114557877019  0.3687234710291563  0.6358161317194728
  0.5694210370080697  0.3686299965852839  0.6355910670361737
  0.0692633701303222  0.8657239067654317  0.6398012204083230
  0.5809435011438708  0.8645937697139914  0.6342164258361791
  0.3194474024191791  0.3814207096327138  0.1353647940110108
  0.8196646528146943  0.3812985482675089  0.1356615061921076
  0.3209604790165841  0.8818825242660324  0.1356279103312161
  0.8205211900586775  0.8825461821293885  0.1353278148971100
  0.1802741240669334  0.1188182657338643  0.8651490378934241
  0.6807993912261523  0.1193100884129095  0.8620819475914203
  0.1781556662244768  0.6197283495590753  0.8617295399935330
  0.6786024412294580  0.6167343767956623  0.8653154223931594
  0.1800009256350918  0.3813446569175412  0.3635926939175320
  0.6798495719421709  0.3812924121173253  0.3635722804764470
  0.1796425095527709  0.8818566248329560  0.3632004716722363
  0.6819604728826931  0.8807632368930456  0.3657952277016250
  0.3192106086991870  0.1186235912169167  0.6360535165021730
  0.8195061006473168  0.1194547560796693  0.6332687000767194
  0.3197351235973684  0.6189639367304025  0.6358720791554191
  0.8173843564574383  0.6196443248065080  0.6362617529303307
  0.0528167216897586  0.2920331322529961  0.1360046146174341
  0.5526507463704320  0.2921379755337057  0.1355180727535057
  0.0531571815690697  0.7921951644854985  0.1351989328080663
  0.5536241638663739  0.7921425103565909  0.1365790841165619
  0.4467757337773222  0.2080798080197184  0.8633859933842700
  0.9468539497189923  0.2078034709124523  0.8635630224873694
  0.4483966915889681  0.7077946553284278  0.8627284220012257
  0.9433714292283710  0.7084694007417411  0.8615594128549731
  0.4467308896765658  0.2921305678467192  0.3632528992377075
  0.9469357101999520  0.2920855770906670  0.3638459071601190
  0.4439531922794728  0.7920089665287051  0.3623965333674946
  0.9459807168378944  0.7925320432392056  0.3640276669675373
  0.0531048596276378  0.2078204931205647  0.6367262837267518
  0.5518786109444989  0.2081009119885309  0.6354585643504862
  0.0438453320079688  0.7107550724939955  0.6342023735353024
  0.5569057805302293  0.7070587503027568  0.6363865870655943
  0.3031613944770086  0.0422559780043414  0.1361689535774389
  0.8030345462692878  0.0424641777904284  0.1362256186194486
  0.3026751423232881  0.5420825432953009  0.1359218086244383
  0.8026406413141416  0.5420583564932571  0.1357054104933297
  0.1958294974412738  0.4586000170757245  0.8630436047592340
  0.6966670628073999  0.4575998820062921  0.8632762519953445
  0.1985604674474999  0.9568997360764371  0.8614271460323195
  0.6909844657277802  0.9611127331914204  0.8725675717188039
  0.1971710984397390  0.0421591277835205  0.3639825430908274
  0.6976279184085641  0.0422391055611726  0.3640598940722413
  0.1969037197440571  0.5419655848818650  0.3639625431043996
  0.6970551283448501  0.5419946945114802  0.3635426497004914
  0.3015757016102185  0.4583983855728491  0.6358035947128116
  0.8027205309328451  0.4579715815534584  0.6357481536779659
  0.3048343293632598  0.9582913621726448  0.6329946328189351
  0.8014184097155450  0.9553890007834482  0.6408494960350879
  0.0689907219771868  0.4530167626039372  0.1334593658521612
  0.5690809306712197  0.4529938545072127  0.1334195026079001
  0.0698526981500081  0.9531393400461283  0.1316926036678225
  0.5692150531923659  0.9530834377470683  0.1354604577636209
  0.4297995595563293  0.0475211854244719  0.8658121596539914
  0.9291403825942695  0.0473338295026267  0.8647877452442145
  0.4294469545966990  0.5468701464134327  0.8657982265945350
  0.9301545103642042  0.5470319472524707  0.8653196650245434
  0.4304167215331205  0.4529223478102438  0.3657179232779484
  0.9303773047747725  0.4527823992980800  0.3660700173437661
  0.4308803267722325  0.9526922662248012  0.3668837511423746
  0.9324422820737297  0.9547347216784843  0.3653448391480936
  0.0699924145994189  0.0474066366652153  0.6343553478810975
  0.5693800790019594  0.0467917032514009  0.6340446429454119
  0.0675205869596383  0.5479756134972149  0.6325302847517520
  0.5682092614831049  0.5461604158775657  0.6334270534626683
  0.3189154489959805  0.2032333959885193  0.1334491386355339
  0.8190634958463221  0.2033205791631900  0.1336581157660817
  0.3200852939545982  0.7024726809477002  0.1337700553413228
  0.8192486311282252  0.7027289314273659  0.1338247282209863
  0.1803344621879646  0.2973409937573024  0.8659753884055164
  0.6802729005635442  0.2970393188253055  0.8655341814446942
  0.1911452197191892  0.7942742246447096  0.8749827830750192
  0.6823233434315412  0.7957001079215118  0.8663032469226977
  0.1809149975926445  0.2032388162483514  0.3660420355338161
  0.6803316648087971  0.2032752136301497  0.3655886279917340
  0.1798291097278124  0.7027002631860455  0.3661675482802096
  0.6815450339814859  0.7034762826763838  0.3685822777960439
  0.3185255115454808  0.2973028946145391  0.6334116575977120
  0.8189283811219283  0.2969036700965049  0.6336346268219870
  0.3215882862549293  0.7966165331507540  0.6326563334029771
 
  0.00000000E+00  0.00000000E+00  0.00000000E+00
  0.00000000E+00  0.00000000E+00  0.00000000E+00
  0.00000000E+00  0.00000000E+00  0.00000000E+00
  0.00000000E+00  0.00000000E+00  0.00000000E+00
  0.00000000E+00  0.00000000E+00  0.00000000E+00
  0.00000000E+00  0.00000000E+00  0.00000000E+00
  0.00000000E+00  0.00000000E+00  0.00000000E+00
  0.00000000E+00  0.00000000E+00  0.00000000E+00
  0.00000000E+00  0.00000000E+00  0.00000000E+00
  0.00000000E+00  0.00000000E+00  0.00000000E+00
  0.00000000E+00  0.00000000E+00  0.00000000E+00
  0.00000000E+00  0.00000000E+00  0.00000000E+00
  0.00000000E+00  0.00000000E+00  0.00000000E+00
  0.00000000E+00  0.00000000E+00  0.00000000E+00
  0.00000000E+00  0.00000000E+00  0.00000000E+00
  0.00000000E+00  0.00000000E+00  0.00000000E+00
  0.00000000E+00  0.00000000E+00  0.00000000E+00
  0.00000000E+00  0.00000000E+00  0.00000000E+00
  0.00000000E+00  0.00000000E+00  0.00000000E+00
  0.00000000E+00  0.00000000E+00  0.00000000E+00
  0.00000000E+00  0.00000000E+00  0.00000000E+00
  0.00000000E+00  0.00000000E+00  0.00000000E+00
  0.00000000E+00  0.00000000E+00  0.00000000E+00
  0.00000000E+00  0.00000000E+00  0.00000000E+00
  0.00000000E+00  0.00000000E+00  0.00000000E+00
  0.00000000E+00  0.00000000E+00  0.00000000E+00
  0.00000000E+00  0.00000000E+00  0.00000000E+00
  0.00000000E+00  0.00000000E+00  0.00000000E+00
  0.00000000E+00  0.00000000E+00  0.00000000E+00
  0.00000000E+00  0.00000000E+00  0.00000000E+00
  0.00000000E+00  0.00000000E+00  0.00000000E+00
  0.00000000E+00  0.00000000E+00  0.00000000E+00
  0.00000000E+00  0.00000000E+00  0.00000000E+00
  0.00000000E+00  0.00000000E+00  0.00000000E+00
  0.00000000E+00  0.00000000E+00  0.00000000E+00
  0.00000000E+00  0.00000000E+00  0.00000000E+00
  0.00000000E+00  0.00000000E+00  0.00000000E+00
  0.00000000E+00  0.00000000E+00  0.00000000E+00
  0.00000000E+00  0.00000000E+00  0.00000000E+00
  0.00000000E+00  0.00000000E+00  0.00000000E+00
  0.00000000E+00  0.00000000E+00  0.00000000E+00
  0.00000000E+00  0.00000000E+00  0.00000000E+00
  0.00000000E+00  0.00000000E+00  0.00000000E+00
  0.00000000E+00  0.00000000E+00  0.00000000E+00
  0.00000000E+00  0.00000000E+00  0.00000000E+00
  0.00000000E+00  0.00000000E+00  0.00000000E+00
  0.00000000E+00  0.00000000E+00  0.00000000E+00
  0.00000000E+00  0.00000000E+00  0.00000000E+00
  0.00000000E+00  0.00000000E+00  0.00000000E+00
  0.00000000E+00  0.00000000E+00  0.00000000E+00
  0.00000000E+00  0.00000000E+00  0.00000000E+00
  0.00000000E+00  0.00000000E+00  0.00000000E+00
  0.00000000E+00  0.00000000E+00  0.00000000E+00
  0.00000000E+00  0.00000000E+00  0.00000000E+00
  0.00000000E+00  0.00000000E+00  0.00000000E+00
  0.00000000E+00  0.00000000E+00  0.00000000E+00
  0.00000000E+00  0.00000000E+00  0.00000000E+00
  0.00000000E+00  0.00000000E+00  0.00000000E+00
  0.00000000E+00  0.00000000E+00  0.00000000E+00
  0.00000000E+00  0.00000000E+00  0.00000000E+00
  0.00000000E+00  0.00000000E+00  0.00000000E+00
  0.00000000E+00  0.00000000E+00  0.00000000E+00
  0.00000000E+00  0.00000000E+00  0.00000000E+00
  0.00000000E+00  0.00000000E+00  0.00000000E+00
  0.00000000E+00  0.00000000E+00  0.00000000E+00
  0.00000000E+00  0.00000000E+00  0.00000000E+00
  0.00000000E+00  0.00000000E+00  0.00000000E+00
  0.00000000E+00  0.00000000E+00  0.00000000E+00
  0.00000000E+00  0.00000000E+00  0.00000000E+00
  0.00000000E+00  0.00000000E+00  0.00000000E+00
  0.00000000E+00  0.00000000E+00  0.00000000E+00
  0.00000000E+00  0.00000000E+00  0.00000000E+00
  0.00000000E+00  0.00000000E+00  0.00000000E+00
  0.00000000E+00  0.00000000E+00  0.00000000E+00
  0.00000000E+00  0.00000000E+00  0.00000000E+00
  0.00000000E+00  0.00000000E+00  0.00000000E+00
  0.00000000E+00  0.00000000E+00  0.00000000E+00
  0.00000000E+00  0.00000000E+00  0.00000000E+00
  0.00000000E+00  0.00000000E+00  0.00000000E+00
  0.00000000E+00  0.00000000E+00  0.00000000E+00
  0.00000000E+00  0.00000000E+00  0.00000000E+00
  0.00000000E+00  0.00000000E+00  0.00000000E+00
  0.00000000E+00  0.00000000E+00  0.00000000E+00
  0.00000000E+00  0.00000000E+00  0.00000000E+00
  0.00000000E+00  0.00000000E+00  0.00000000E+00
  0.00000000E+00  0.00000000E+00  0.00000000E+00
  0.00000000E+00  0.00000000E+00  0.00000000E+00
  0.00000000E+00  0.00000000E+00  0.00000000E+00
  0.00000000E+00  0.00000000E+00  0.00000000E+00
  0.00000000E+00  0.00000000E+00  0.00000000E+00
  0.00000000E+00  0.00000000E+00  0.00000000E+00
  0.00000000E+00  0.00000000E+00  0.00000000E+00
  0.00000000E+00  0.00000000E+00  0.00000000E+00
  0.00000000E+00  0.00000000E+00  0.00000000E+00
  0.00000000E+00  0.00000000E+00  0.00000000E+00
  0.00000000E+00  0.00000000E+00  0.00000000E+00
  0.00000000E+00  0.00000000E+00  0.00000000E+00
  0.00000000E+00  0.00000000E+00  0.00000000E+00
  0.00000000E+00  0.00000000E+00  0.00000000E+00
  0.00000000E+00  0.00000000E+00  0.00000000E+00
  0.00000000E+00  0.00000000E+00  0.00000000E+00
  0.00000000E+00  0.00000000E+00  0.00000000E+00
  0.00000000E+00  0.00000000E+00  0.00000000E+00
  0.00000000E+00  0.00000000E+00  0.00000000E+00
  0.00000000E+00  0.00000000E+00  0.00000000E+00
  0.00000000E+00  0.00000000E+00  0.00000000E+00
  0.00000000E+00  0.00000000E+00  0.00000000E+00
  0.00000000E+00  0.00000000E+00  0.00000000E+00
  0.00000000E+00  0.00000000E+00  0.00000000E+00
  0.00000000E+00  0.00000000E+00  0.00000000E+00
  0.00000000E+00  0.00000000E+00  0.00000000E+00
  0.00000000E+00  0.00000000E+00  0.00000000E+00
  0.00000000E+00  0.00000000E+00  0.00000000E+00
  0.00000000E+00  0.00000000E+00  0.00000000E+00
  0.00000000E+00  0.00000000E+00  0.00000000E+00
  0.00000000E+00  0.00000000E+00  0.00000000E+00
  0.00000000E+00  0.00000000E+00  0.00000000E+00
  0.00000000E+00  0.00000000E+00  0.00000000E+00
  0.00000000E+00  0.00000000E+00  0.00000000E+00
  0.00000000E+00  0.00000000E+00  0.00000000E+00
  0.00000000E+00  0.00000000E+00  0.00000000E+00
  0.00000000E+00  0.00000000E+00  0.00000000E+00
  0.00000000E+00  0.00000000E+00  0.00000000E+00
  0.00000000E+00  0.00000000E+00  0.00000000E+00
  0.00000000E+00  0.00000000E+00  0.00000000E+00
  0.00000000E+00  0.00000000E+00  0.00000000E+00
  0.00000000E+00  0.00000000E+00  0.00000000E+00
  0.00000000E+00  0.00000000E+00  0.00000000E+00
  0.00000000E+00  0.00000000E+00  0.00000000E+00
  0.00000000E+00  0.00000000E+00  0.00000000E+00
  0.00000000E+00  0.00000000E+00  0.00000000E+00
  0.00000000E+00  0.00000000E+00  0.00000000E+00
  0.00000000E+00  0.00000000E+00  0.00000000E+00
  0.00000000E+00  0.00000000E+00  0.00000000E+00
  0.00000000E+00  0.00000000E+00  0.00000000E+00
  0.00000000E+00  0.00000000E+00  0.00000000E+00
  0.00000000E+00  0.00000000E+00  0.00000000E+00
  0.00000000E+00  0.00000000E+00  0.00000000E+00
  0.00000000E+00  0.00000000E+00  0.00000000E+00
  0.00000000E+00  0.00000000E+00  0.00000000E+00
  0.00000000E+00  0.00000000E+00  0.00000000E+00
  0.00000000E+00  0.00000000E+00  0.00000000E+00
  0.00000000E+00  0.00000000E+00  0.00000000E+00
  0.00000000E+00  0.00000000E+00  0.00000000E+00
  0.00000000E+00  0.00000000E+00  0.00000000E+00
  0.00000000E+00  0.00000000E+00  0.00000000E+00
  0.00000000E+00  0.00000000E+00  0.00000000E+00
  0.00000000E+00  0.00000000E+00  0.00000000E+00
  0.00000000E+00  0.00000000E+00  0.00000000E+00
  0.00000000E+00  0.00000000E+00  0.00000000E+00
  0.00000000E+00  0.00000000E+00  0.00000000E+00
  0.00000000E+00  0.00000000E+00  0.00000000E+00
  0.00000000E+00  0.00000000E+00  0.00000000E+00
  0.00000000E+00  0.00000000E+00  0.00000000E+00
  0.00000000E+00  0.00000000E+00  0.00000000E+00
  0.00000000E+00  0.00000000E+00  0.00000000E+00
  0.00000000E+00  0.00000000E+00  0.00000000E+00
  0.00000000E+00  0.00000000E+00  0.00000000E+00
  0.00000000E+00  0.00000000E+00  0.00000000E+00
  0.00000000E+00  0.00000000E+00  0.00000000E+00
  0.00000000E+00  0.00000000E+00  0.00000000E+00
  0.00000000E+00  0.00000000E+00  0.00000000E+00
  0.00000000E+00  0.00000000E+00  0.00000000E+00
  0.00000000E+00  0.00000000E+00  0.00000000E+00
  0.00000000E+00  0.00000000E+00  0.00000000E+00
  0.00000000E+00  0.00000000E+00  0.00000000E+00
  0.00000000E+00  0.00000000E+00  0.00000000E+00
  0.00000000E+00  0.00000000E+00  0.00000000E+00
  0.00000000E+00  0.00000000E+00  0.00000000E+00
  0.00000000E+00  0.00000000E+00  0.00000000E+00
  0.00000000E+00  0.00000000E+00  0.00000000E+00
  0.00000000E+00  0.00000000E+00  0.00000000E+00
  0.00000000E+00  0.00000000E+00  0.00000000E+00
  0.00000000E+00  0.00000000E+00  0.00000000E+00
  0.00000000E+00  0.00000000E+00  0.00000000E+00
  0.00000000E+00  0.00000000E+00  0.00000000E+00
  0.00000000E+00  0.00000000E+00  0.00000000E+00
  0.00000000E+00  0.00000000E+00  0.00000000E+00
  0.00000000E+00  0.00000000E+00  0.00000000E+00
  0.00000000E+00  0.00000000E+00  0.00000000E+00
  0.00000000E+00  0.00000000E+00  0.00000000E+00
  0.00000000E+00  0.00000000E+00  0.00000000E+00
  0.00000000E+00  0.00000000E+00  0.00000000E+00
  0.00000000E+00  0.00000000E+00  0.00000000E+00
  0.00000000E+00  0.00000000E+00  0.00000000E+00
  0.00000000E+00  0.00000000E+00  0.00000000E+00
  0.00000000E+00  0.00000000E+00  0.00000000E+00
  0.00000000E+00  0.00000000E+00  0.00000000E+00
  0.00000000E+00  0.00000000E+00  0.00000000E+00
  0.00000000E+00  0.00000000E+00  0.00000000E+00
  0.00000000E+00  0.00000000E+00  0.00000000E+00
