Mg O                                    
   1.00000000000000     
     0.0000000000000000    4.2468930196252002    4.2468930196252002
     4.2468930196252002    0.0000000000000000    4.2468930196252002
     4.2468930196252002    4.2468930196252002    0.0000000000000000
   Mg   O 
     9     6
Direct
  0.9984922179197682  0.9984922179197682  0.0015077820802318
  0.9770071197836359  0.9770071197836359  0.5229928802163641
  0.9743940812778717  0.5256059187221283  0.9805331247522133
  0.9743940812778717  0.5256059187221283  0.5194668752477867
  0.5256059187221283  0.9743940812778717  0.9805331247522133
  0.5256059187221283  0.9743940812778717  0.5194668752477867
  0.5229928802163641  0.5229928802163641  0.9770071197836359
  0.5015077820802318  0.5015077820802318  0.4984922179197682
  0.2500000000000000  0.2500000000000000  0.2500000000000000
  0.2500000000000000  0.7500000000000000  0.2500000000000000
  0.2500000000000000  0.7499999999999929  0.7500000000000000
  0.7500000000000000  0.2500000000000000  0.2500000000000000
  0.7499999999999929  0.2500000000000000  0.7500000000000000
  0.7499999999999929  0.7499999999999929  0.2500000000000000
  0.7499999999999929  0.7499999999999929  0.7499999999999929
 
  0.00000000E+00  0.00000000E+00  0.00000000E+00
  0.00000000E+00  0.00000000E+00  0.00000000E+00
  0.00000000E+00  0.00000000E+00  0.00000000E+00
  0.00000000E+00  0.00000000E+00  0.00000000E+00
  0.00000000E+00  0.00000000E+00  0.00000000E+00
  0.00000000E+00  0.00000000E+00  0.00000000E+00
  0.00000000E+00  0.00000000E+00  0.00000000E+00
  0.00000000E+00  0.00000000E+00  0.00000000E+00
  0.00000000E+00  0.00000000E+00  0.00000000E+00
  0.00000000E+00  0.00000000E+00  0.00000000E+00
  0.00000000E+00  0.00000000E+00  0.00000000E+00
  0.00000000E+00  0.00000000E+00  0.00000000E+00
  0.00000000E+00  0.00000000E+00  0.00000000E+00
  0.00000000E+00  0.00000000E+00  0.00000000E+00
  0.00000000E+00  0.00000000E+00  0.00000000E+00
