Mg O                                    
   1.00000000000000     
     0.0000000000000000    4.2468930196252002    4.2468930196252002
     4.2468930196252002    0.0000000000000000    4.2468930196252002
     4.2468930196252002    4.2468930196252002    0.0000000000000000
   Mg   O 
     9     6
Direct
  0.9973720555183405  0.9973720555183405  0.0026279444816595
  0.9775795971519727  0.9775795971519727  0.5224204028480273
  0.9724148579331668  0.5275851420668332  0.9827159262816281
  0.9724148579331668  0.5275851420668332  0.5172840737183719
  0.5275851420668332  0.9724148579331668  0.9827159262816281
  0.5275851420668332  0.9724148579331668  0.5172840737183719
  0.5224204028480273  0.5224204028480273  0.9775795971519727
  0.5026279444816595  0.5026279444816595  0.4973720555183405
  0.2500000000000000  0.2500000000000000  0.2500000000000000
  0.2500000000000000  0.7500000000000000  0.2500000000000000
  0.2500000000000000  0.7499999999999929  0.7500000000000000
  0.7500000000000000  0.2500000000000000  0.2500000000000000
  0.7499999999999929  0.2500000000000000  0.7500000000000000
  0.7499999999999929  0.7499999999999929  0.2500000000000000
  0.7499999999999929  0.7499999999999929  0.7499999999999929
 
  0.00000000E+00  0.00000000E+00  0.00000000E+00
  0.00000000E+00  0.00000000E+00  0.00000000E+00
  0.00000000E+00  0.00000000E+00  0.00000000E+00
  0.00000000E+00  0.00000000E+00  0.00000000E+00
  0.00000000E+00  0.00000000E+00  0.00000000E+00
  0.00000000E+00  0.00000000E+00  0.00000000E+00
  0.00000000E+00  0.00000000E+00  0.00000000E+00
  0.00000000E+00  0.00000000E+00  0.00000000E+00
  0.00000000E+00  0.00000000E+00  0.00000000E+00
  0.00000000E+00  0.00000000E+00  0.00000000E+00
  0.00000000E+00  0.00000000E+00  0.00000000E+00
  0.00000000E+00  0.00000000E+00  0.00000000E+00
  0.00000000E+00  0.00000000E+00  0.00000000E+00
  0.00000000E+00  0.00000000E+00  0.00000000E+00
  0.00000000E+00  0.00000000E+00  0.00000000E+00
