Mg O                                    
   1.00000000000000     
   0.00000000000000   4.24689301962520   4.24689301962520
   4.24689301962520   0.00000000000000   4.24689301962520
   4.24689301962520   4.24689301962520   0.00000000000000
Mg O 
9 6 
Direct
   0.00000000000000   0.00000000000000   0.01000000000000  Mg 
   0.00000000000000   0.00000000000000   0.50000000000000  Mg 
   0.00000000000000   0.50000000000000   0.00000000000000  Mg 
   0.00000000000000   0.50000000000000   0.50000000000000  Mg 
   0.50000000000000   0.00000000000000   0.00000000000000  Mg 
   0.50000000000000   0.00000000000000   0.50000000000000  Mg 
   0.50000000000000   0.50000000000000   0.00000000000000  Mg 
   0.50000000000000   0.50000000000000   0.50000000000000  Mg 
   0.25000000000000   0.25000000000000   0.25000000000000  Mg 
   0.25000000000000   0.75000000000000   0.25000000000000  O 
   0.25000000000000   0.74999999999999   0.75000000000000  O 
   0.75000000000000   0.25000000000000   0.25000000000000  O 
   0.74999999999999   0.25000000000000   0.75000000000000  O 
   0.74999999999999   0.74999999999999   0.25000000000000  O 
   0.74999999999999   0.74999999999999   0.74999999999999  O 
