k-point mesh generated by kpt_generator.py with a mesh of 0.035
0
G
1 1 1
0 0 0
