ZnN2Ba2/Ba_p2_2_N_m3_2_Zn_p2_1/Ba_p2_2_N
   1.00000000000000     
     4.1842877151383924    0.0000000000000000    0.0000000000000000
     0.0000000000000000   -4.1842877151383924    0.0000000000000000
    -2.0921438575691962    2.0921438575691962   -6.5270740920665409
   Ba   N    Zn
     2     2     1
Direct
  0.3432860219820810  0.3432860219820810  0.6865720439641905
  0.6567139780179048  0.6567139780179048  0.3134279560358024
  0.1403661952304063  0.1403661952304063  0.2807323904608197
  0.8596338047695866  0.8596338047695866  0.7192676095391661
  0.0000000000000000  0.0000000000000000  0.0000000000000000
 
  0.00000000E+00  0.00000000E+00  0.00000000E+00
  0.00000000E+00  0.00000000E+00  0.00000000E+00
  0.00000000E+00  0.00000000E+00  0.00000000E+00
  0.00000000E+00  0.00000000E+00  0.00000000E+00
  0.00000000E+00  0.00000000E+00  0.00000000E+00
