NPAR = 4
ENCUT = 520.
PREC = N ; LREAL = A
LASPH = .TRUE.

ISIF = 3 ; EDIFF = 1.0e-06 ; EDIFFG = -0.05

IBRION = 2
NSW = 20
ISMEAR = 0 ; SIGMA = 0.05
NELM = 100 ; NELMIN = 4
ALGO = N

LWAVE = .TRUE.
LCHARG = .TRUE.
