Mg2                                     
   1.00000000000000     
     3.1846175716467622    0.0000000001531559    0.0000000000000000
    -1.5923082855581074    2.7579594201877726    0.0000000000000000
     0.0000000000000000    0.0000000000000000    5.1997143711166487
   Mg
     2
Direct
  0.3333330000000032  0.6666669999999968  0.2500000000000000
  0.6666669999999968  0.3333330000000032  0.7500000000000000
 
  0.00000000E+00  0.00000000E+00  0.00000000E+00
  0.00000000E+00  0.00000000E+00  0.00000000E+00
