k-point mesh generated by kpt_generator.py with a mesh of 0.05
0
G
30 30 20
0 0 0.5
