Mg9 O7                                  
   1.00000000000000     
     0.0000000000000000    4.2468930000000000    4.2468930000000000
     4.2468930000000000    0.0000000000000000    4.2468930000000000
     4.2468930000000000    4.2468930000000000    0.0000000000000000
   Mg   O 
     9     7
Direct
  0.1679718571125477  0.3278565222988945  0.2391750948741276
  0.0119806174841131  0.9886912191516615  0.0017582853648150
  0.9961000808994456  0.9684604287998297  0.5196373218658863
  0.9629260716445245  0.5338081610743686  0.9523977965491000
  0.9763765901376971  0.5211968471085555  0.5440657796756270
  0.5067135139181786  0.9913570121485193  0.9992310737210346
  0.5002940519892505  0.9977041351333185  0.4986806490896498
  0.5273423471932617  0.5016469400288699  0.9871456683005420
  0.5085912485090418  0.4857241463702167  0.5049229145842915
  0.2445884554858537  0.2527786136277044  0.7575072766230733
  0.2539728133559578  0.7309354169854174  0.2589171788319149
  0.2494986422087706  0.7249055056597911  0.7661594540663828
  0.7718633284907170  0.2477138786114566  0.2437934024808825
  0.7673698562068338  0.2430688441976159  0.7459683027976638
  0.7880380970256837  0.7092580510541993  0.2497161506640850
  0.7264154283381288  0.7706372777495716  0.7456306505109112
 
  0.00000000E+00  0.00000000E+00  0.00000000E+00
  0.00000000E+00  0.00000000E+00  0.00000000E+00
  0.00000000E+00  0.00000000E+00  0.00000000E+00
  0.00000000E+00  0.00000000E+00  0.00000000E+00
  0.00000000E+00  0.00000000E+00  0.00000000E+00
  0.00000000E+00  0.00000000E+00  0.00000000E+00
  0.00000000E+00  0.00000000E+00  0.00000000E+00
  0.00000000E+00  0.00000000E+00  0.00000000E+00
  0.00000000E+00  0.00000000E+00  0.00000000E+00
  0.00000000E+00  0.00000000E+00  0.00000000E+00
  0.00000000E+00  0.00000000E+00  0.00000000E+00
  0.00000000E+00  0.00000000E+00  0.00000000E+00
  0.00000000E+00  0.00000000E+00  0.00000000E+00
  0.00000000E+00  0.00000000E+00  0.00000000E+00
  0.00000000E+00  0.00000000E+00  0.00000000E+00
  0.00000000E+00  0.00000000E+00  0.00000000E+00
