Mg9 O7                                  
   1.00000000000000     
     0.0000000000000000    4.2468930000000000    4.2468930000000000
     4.2468930000000000    0.0000000000000000    4.2468930000000000
     4.2468930000000000    4.2468930000000000    0.0000000000000000
   Mg   O 
     9     7
Direct
  0.1672563189431031  0.3267383570797122  0.2353697270320438
  0.0121360000694395  0.9887305467825485  0.0026327530304471
  0.9963170487591881  0.9679468278102163  0.5206377051273705
  0.9609743906888468  0.5361098030501452  0.9510912563494003
  0.9788887295456945  0.5190631092908333  0.5427056840614739
  0.5079078788944003  0.9905617006120053  0.9983819043924669
  0.4979806736388426  0.9993221635389276  0.4990555848400007
  0.5269416482525955  0.5013725501460726  0.9885332165669638
  0.5085868649759249  0.4859837920564942  0.5056739273199327
  0.2446831932121611  0.2530234074463280  0.7596092291205991
  0.2546540018506960  0.7319050402713856  0.2591957691981079
  0.2485985694863331  0.7238310547067854  0.7682201496328886
  0.7739011947070367  0.2484659072986162  0.2439493249860405
  0.7668681604820620  0.2424394405148362  0.7471597025281369
  0.7883287570998547  0.7092563159997596  0.2489627577554216
  0.7260195693938414  0.7709929833953382  0.7435283080586998
 
  0.00000000E+00  0.00000000E+00  0.00000000E+00
  0.00000000E+00  0.00000000E+00  0.00000000E+00
  0.00000000E+00  0.00000000E+00  0.00000000E+00
  0.00000000E+00  0.00000000E+00  0.00000000E+00
  0.00000000E+00  0.00000000E+00  0.00000000E+00
  0.00000000E+00  0.00000000E+00  0.00000000E+00
  0.00000000E+00  0.00000000E+00  0.00000000E+00
  0.00000000E+00  0.00000000E+00  0.00000000E+00
  0.00000000E+00  0.00000000E+00  0.00000000E+00
  0.00000000E+00  0.00000000E+00  0.00000000E+00
  0.00000000E+00  0.00000000E+00  0.00000000E+00
  0.00000000E+00  0.00000000E+00  0.00000000E+00
  0.00000000E+00  0.00000000E+00  0.00000000E+00
  0.00000000E+00  0.00000000E+00  0.00000000E+00
  0.00000000E+00  0.00000000E+00  0.00000000E+00
  0.00000000E+00  0.00000000E+00  0.00000000E+00
