Mg9 O7
1.0
0.000000 4.246893 4.246893
4.246893 0.000000 4.246893
4.246893 4.246893 0.000000
Mg O
9 7
direct
0.238396 0.258470 0.258031 Mg
0.000000 0.000000 0.000000 Mg
0.017123 0.971605 0.513359 Mg
0.976287 0.519129 0.978323 Mg
0.007476 0.494317 0.506630 Mg
0.492209 0.004979 0.004158 Mg
0.472717 0.002063 0.499605 Mg
0.505835 0.495180 0.004601 Mg
0.500000 0.500000 0.500000 Mg
0.250000 0.250000 0.750000 O
0.250000 0.750000 0.250000 O
0.250000 0.750000 0.750000 O
0.750000 0.250000 0.250000 O
0.750000 0.250000 0.750000 O
0.750000 0.750000 0.250000 O
0.750000 0.750000 0.750000 O
