Mg33 O32
1.0
8.493786 0.000000 0.000000
0.000000 8.493786 0.000000
0.000000 0.000000 8.493786
Mg O
33 32
direct
0.298865 0.295991 0.295613 Mg
0.000000 0.000000 0.000000 Mg
0.000000 0.000000 0.500000 Mg
0.000000 0.500000 0.000000 Mg
0.000000 0.500000 0.500000 Mg
0.500000 0.000000 0.000000 Mg
0.500000 0.000000 0.500000 Mg
0.500000 0.500000 0.000000 Mg
0.499108 0.502775 0.498922 Mg
0.988040 0.240945 0.257092 Mg
0.000000 0.250000 0.750000 Mg
0.000000 0.750000 0.250000 Mg
0.000000 0.750000 0.750000 Mg
0.501071 0.246902 0.246573 Mg
0.500000 0.250000 0.750000 Mg
0.500000 0.750000 0.250000 Mg
0.500000 0.750000 0.750000 Mg
0.253088 0.995300 0.246997 Mg
0.250000 0.000000 0.750000 Mg
0.246709 0.488974 0.250521 Mg
0.250000 0.500000 0.750000 Mg
0.750000 0.000000 0.250000 Mg
0.750000 0.000000 0.750000 Mg
0.750000 0.500000 0.250000 Mg
0.750000 0.500000 0.750000 Mg
0.247880 0.244617 0.997611 Mg
0.251246 0.249549 0.499497 Mg
0.250000 0.750000 0.000000 Mg
0.250000 0.750000 0.500000 Mg
0.750000 0.250000 0.000000 Mg
0.750000 0.250000 0.500000 Mg
0.750000 0.750000 0.000000 Mg
0.750000 0.750000 0.500000 Mg
0.253435 0.253703 0.238965 O
0.250000 0.250000 0.750000 O
0.250000 0.750000 0.250000 O
0.250000 0.750000 0.750000 O
0.750000 0.250000 0.250000 O
0.750000 0.250000 0.750000 O
0.750000 0.750000 0.250000 O
0.750000 0.750000 0.750000 O
0.250000 0.000000 0.000000 O
0.250000 0.000000 0.500000 O
0.250000 0.500000 0.000000 O
0.249746 0.503913 0.496710 O
0.750000 0.000000 0.000000 O
0.750000 0.000000 0.500000 O
0.750000 0.500000 0.000000 O
0.750000 0.500000 0.500000 O
0.000000 0.250000 0.000000 O
0.000000 0.250000 0.500000 O
0.000000 0.750000 0.000000 O
0.000000 0.750000 0.500000 O
0.500000 0.250000 0.000000 O
0.501557 0.242075 0.506589 O
0.500000 0.750000 0.000000 O
0.500000 0.750000 0.500000 O
0.000000 0.000000 0.250000 O
0.000000 0.000000 0.750000 O
0.000000 0.500000 0.250000 O
0.000000 0.500000 0.750000 O
0.500000 0.000000 0.250000 O
0.500000 0.000000 0.750000 O
0.495677 0.508559 0.248017 O
0.500000 0.500000 0.750000 O
