Mg1 O1
1.0
0.000000 2.123447 2.123447
2.123447 0.000000 2.123447
2.123447 2.123447 0.000000
Mg O H
1 1 1
direct
0.000000 0.000000 0.000000 Mg
0.500000 0.500000 0.500000 O
0.2500000 0.1500000 0.0500000 H
