Mg8 O7
1.0
0.000000 4.246893 4.246893
4.246893 0.000000 4.246893
4.246893 4.246893 0.000000
Mg O
8 7
direct
0.000000 0.000000 0.000000 Mg
0.018373 0.993967 0.512628 Mg
0.001651 0.498557 0.000651 Mg
0.000057 0.500651 0.499347 Mg
0.505303 0.998589 0.999210 Mg
0.501850 0.997627 0.500466 Mg
0.487753 0.513095 0.993453 Mg
0.500000 0.500000 0.500000 Mg
0.250000 0.250000 0.750000 O
0.250000 0.750000 0.250000 O
0.250000 0.750000 0.750000 O
0.750000 0.250000 0.250000 O
0.750000 0.250000 0.750000 O
0.750000 0.750000 0.250000 O
0.750000 0.750000 0.750000 O
