Mg32 O33                                
   1.00000000000000     
     8.4194560000000003    0.0000000000000000    0.0000000000000000
     0.0000000000000000    8.4194560000000003    0.0000000000000000
     0.0000000000000000    0.0000000000000000    8.4194560000000003
   Mg   O 
    32    33
Direct
  0.9961393143620896  0.9961393143620896  0.9961393143620896
  0.9971406131978284  0.9971406131978284  0.5042986727433032
  0.9971406131978284  0.5042986727433032  0.9971406131978284
  0.0004014050745837  0.5010603517053696  0.5010603517053696
  0.5042986727433032  0.9971406131978284  0.9971406131978284
  0.5010603517053696  0.0004014050745837  0.5010603517053696
  0.5010603517053696  0.5010603517053696  0.0004014050745837
  0.4999514022546592  0.4999514022546592  0.4999514022546592
  0.9961393143620896  0.2538606856379104  0.2538606856379104
  0.9971406131978284  0.2528593868021716  0.7457013272566968
  0.9971406131978284  0.7457013272566968  0.2528593868021716
  0.0004014050745837  0.7489396482946304  0.7489396482946304
  0.5042986727433032  0.2528593868021716  0.2528593868021716
  0.5010603517053696  0.2495985949254163  0.7489396482946304
  0.5010603517053696  0.7489396482946304  0.2495985949254163
  0.4999514022546592  0.7500485977453408  0.7500485977453408
  0.2538606856379104  0.9961393143620896  0.2538606856379104
  0.2528593868021716  0.9971406131978284  0.7457013272566968
  0.2528593868021716  0.5042986727433032  0.2528593868021716
  0.2495985949254163  0.5010603517053696  0.7489396482946304
  0.7457013272566968  0.9971406131978284  0.2528593868021716
  0.7489396482946304  0.0004014050745837  0.7489396482946304
  0.7489396482946304  0.5010603517053696  0.2495985949254163
  0.7500485977453408  0.4999514022546592  0.7500485977453408
  0.2538606856379104  0.2538606856379104  0.9961393143620896
  0.2528593868021716  0.2528593868021716  0.5042986727433032
  0.2528593868021716  0.7457013272566968  0.9971406131978284
  0.2495985949254163  0.7489396482946304  0.5010603517053696
  0.7457013272566968  0.2528593868021716  0.9971406131978284
  0.7489396482946304  0.2495985949254163  0.5010603517053696
  0.7489396482946304  0.7489396482946304  0.0004014050745837
  0.7500485977453408  0.7500485977453408  0.4999514022546592
  0.1250000000000000  0.1250000000000000  0.1250000000000000
  0.2766963001934784  0.9733036998065216  0.9733036998065216
  0.2505970197851468  0.9994029802148532  0.5006429364005385
  0.2505970197851468  0.5006429364005385  0.9994029802148532
  0.2503870520317975  0.5045046084187206  0.5045046084187206
  0.7493570635994615  0.9994029802148532  0.9994029802148532
  0.7454953915812794  0.9996129479682025  0.5045046084187206
  0.7454953915812794  0.5045046084187206  0.9996129479682025
  0.7500192072776315  0.4999807927223685  0.4999807927223685
  0.2766963001934784  0.2766963001934784  0.2766963001934784
  0.2505970197851468  0.2505970197851468  0.7493570635994615
  0.2505970197851468  0.7493570635994615  0.2505970197851468
  0.2503870520317975  0.7454953915812794  0.7454953915812794
  0.7493570635994615  0.2505970197851468  0.2505970197851468
  0.7454953915812794  0.2503870520317975  0.7454953915812794
  0.7454953915812794  0.7454953915812794  0.2503870520317975
  0.7500192072776315  0.7500192072776315  0.7500192072776315
  0.9733036998065216  0.9733036998065216  0.2766963001934784
  0.9994029802148532  0.9994029802148532  0.7493570635994615
  0.9994029802148532  0.5006429364005385  0.2505970197851468
  0.9996129479682025  0.5045046084187206  0.7454953915812794
  0.5006429364005385  0.9994029802148532  0.2505970197851468
  0.5045046084187206  0.9996129479682025  0.7454953915812794
  0.5045046084187206  0.5045046084187206  0.2503870520317975
  0.4999807927223685  0.4999807927223685  0.7500192072776315
  0.9733036998065216  0.2766963001934784  0.9733036998065216
  0.9994029802148532  0.2505970197851468  0.5006429364005385
  0.9994029802148532  0.7493570635994615  0.9994029802148532
  0.9996129479682025  0.7454953915812794  0.5045046084187206
  0.5006429364005385  0.2505970197851468  0.9994029802148532
  0.5045046084187206  0.2503870520317975  0.5045046084187206
  0.5045046084187206  0.7454953915812794  0.9996129479682025
  0.4999807927223685  0.7500192072776315  0.4999807927223685
 
  0.00000000E+00  0.00000000E+00  0.00000000E+00
  0.00000000E+00  0.00000000E+00  0.00000000E+00
  0.00000000E+00  0.00000000E+00  0.00000000E+00
  0.00000000E+00  0.00000000E+00  0.00000000E+00
  0.00000000E+00  0.00000000E+00  0.00000000E+00
  0.00000000E+00  0.00000000E+00  0.00000000E+00
  0.00000000E+00  0.00000000E+00  0.00000000E+00
  0.00000000E+00  0.00000000E+00  0.00000000E+00
  0.00000000E+00  0.00000000E+00  0.00000000E+00
  0.00000000E+00  0.00000000E+00  0.00000000E+00
  0.00000000E+00  0.00000000E+00  0.00000000E+00
  0.00000000E+00  0.00000000E+00  0.00000000E+00
  0.00000000E+00  0.00000000E+00  0.00000000E+00
  0.00000000E+00  0.00000000E+00  0.00000000E+00
  0.00000000E+00  0.00000000E+00  0.00000000E+00
  0.00000000E+00  0.00000000E+00  0.00000000E+00
  0.00000000E+00  0.00000000E+00  0.00000000E+00
  0.00000000E+00  0.00000000E+00  0.00000000E+00
  0.00000000E+00  0.00000000E+00  0.00000000E+00
  0.00000000E+00  0.00000000E+00  0.00000000E+00
  0.00000000E+00  0.00000000E+00  0.00000000E+00
  0.00000000E+00  0.00000000E+00  0.00000000E+00
  0.00000000E+00  0.00000000E+00  0.00000000E+00
  0.00000000E+00  0.00000000E+00  0.00000000E+00
  0.00000000E+00  0.00000000E+00  0.00000000E+00
  0.00000000E+00  0.00000000E+00  0.00000000E+00
  0.00000000E+00  0.00000000E+00  0.00000000E+00
  0.00000000E+00  0.00000000E+00  0.00000000E+00
  0.00000000E+00  0.00000000E+00  0.00000000E+00
  0.00000000E+00  0.00000000E+00  0.00000000E+00
  0.00000000E+00  0.00000000E+00  0.00000000E+00
  0.00000000E+00  0.00000000E+00  0.00000000E+00
  0.00000000E+00  0.00000000E+00  0.00000000E+00
  0.00000000E+00  0.00000000E+00  0.00000000E+00
  0.00000000E+00  0.00000000E+00  0.00000000E+00
  0.00000000E+00  0.00000000E+00  0.00000000E+00
  0.00000000E+00  0.00000000E+00  0.00000000E+00
  0.00000000E+00  0.00000000E+00  0.00000000E+00
  0.00000000E+00  0.00000000E+00  0.00000000E+00
  0.00000000E+00  0.00000000E+00  0.00000000E+00
  0.00000000E+00  0.00000000E+00  0.00000000E+00
  0.00000000E+00  0.00000000E+00  0.00000000E+00
  0.00000000E+00  0.00000000E+00  0.00000000E+00
  0.00000000E+00  0.00000000E+00  0.00000000E+00
  0.00000000E+00  0.00000000E+00  0.00000000E+00
  0.00000000E+00  0.00000000E+00  0.00000000E+00
  0.00000000E+00  0.00000000E+00  0.00000000E+00
  0.00000000E+00  0.00000000E+00  0.00000000E+00
  0.00000000E+00  0.00000000E+00  0.00000000E+00
  0.00000000E+00  0.00000000E+00  0.00000000E+00
  0.00000000E+00  0.00000000E+00  0.00000000E+00
  0.00000000E+00  0.00000000E+00  0.00000000E+00
  0.00000000E+00  0.00000000E+00  0.00000000E+00
  0.00000000E+00  0.00000000E+00  0.00000000E+00
  0.00000000E+00  0.00000000E+00  0.00000000E+00
  0.00000000E+00  0.00000000E+00  0.00000000E+00
  0.00000000E+00  0.00000000E+00  0.00000000E+00
  0.00000000E+00  0.00000000E+00  0.00000000E+00
  0.00000000E+00  0.00000000E+00  0.00000000E+00
  0.00000000E+00  0.00000000E+00  0.00000000E+00
  0.00000000E+00  0.00000000E+00  0.00000000E+00
  0.00000000E+00  0.00000000E+00  0.00000000E+00
  0.00000000E+00  0.00000000E+00  0.00000000E+00
  0.00000000E+00  0.00000000E+00  0.00000000E+00
  0.00000000E+00  0.00000000E+00  0.00000000E+00
