Mg9 O7                                  
   1.00000000000000     
     0.0000000000000000    4.2468930000000000    4.2468930000000000
     4.2468930000000000    0.0000000000000000    4.2468930000000000
     4.2468930000000000    4.2468930000000000    0.0000000000000000
   Mg   O 
     9     7
Direct
  0.1690158273586775  0.4939570353014275  0.1701438913689657
  0.0038259818446562  0.9889258811320332  0.0050529975746585
  0.0171251867610778  0.9374394774147703  0.4876421075054651
  0.0724786276498861  0.4697093014389679  0.8591523413754913
  0.8580795513274424  0.4697702894018079  0.6020451624272596
  0.5596801985188407  0.9370581139752261  0.0180213960789004
  0.4866802536590384  0.9372506503242732  0.5605264960979000
  0.6008973394714587  0.4698617488013568  0.0729356548555060
  0.5034184569636508  0.4915400854151883  0.5039884457348123
  0.2303556299253628  0.2790731326629654  0.6028612855793796
  0.2844940593589484  0.7458587780573751  0.2141930149705615
  0.2129617030686006  0.7466719793540904  0.7577527388907868
  0.8893784117158745  0.2798141507461480  0.2315216356526122
  0.6008487921489021  0.2794093906537611  0.8908764027917542
  0.7568330923911972  0.7460764206889934  0.2857167763759847
  0.7523418878363941  0.7440945646316166  0.7531146527199581
 
  0.00000000E+00  0.00000000E+00  0.00000000E+00
  0.00000000E+00  0.00000000E+00  0.00000000E+00
  0.00000000E+00  0.00000000E+00  0.00000000E+00
  0.00000000E+00  0.00000000E+00  0.00000000E+00
  0.00000000E+00  0.00000000E+00  0.00000000E+00
  0.00000000E+00  0.00000000E+00  0.00000000E+00
  0.00000000E+00  0.00000000E+00  0.00000000E+00
  0.00000000E+00  0.00000000E+00  0.00000000E+00
  0.00000000E+00  0.00000000E+00  0.00000000E+00
  0.00000000E+00  0.00000000E+00  0.00000000E+00
  0.00000000E+00  0.00000000E+00  0.00000000E+00
  0.00000000E+00  0.00000000E+00  0.00000000E+00
  0.00000000E+00  0.00000000E+00  0.00000000E+00
  0.00000000E+00  0.00000000E+00  0.00000000E+00
  0.00000000E+00  0.00000000E+00  0.00000000E+00
  0.00000000E+00  0.00000000E+00  0.00000000E+00
