Mg9 O7                                  
   1.00000000000000     
     0.0000000000000000    4.2468930000000000    4.2468930000000000
     4.2468930000000000    0.0000000000000000    4.2468930000000000
     4.2468930000000000    4.2468930000000000    0.0000000000000000
   Mg   O 
     9     7
Direct
  0.1682101598061010  0.4955984647439067  0.1696428500803577
  0.0040899317236764  0.9903691030283781  0.0043964028756136
  0.0172461962846100  0.9374518915183359  0.4880738408105501
  0.0708505386454377  0.4712065664536951  0.8602074522173879
  0.8588790137592710  0.4700607043957632  0.6016251634589338
  0.5591528662858707  0.9371867669887308  0.0185137043672512
  0.4875371747151789  0.9376430115474648  0.5594997589524269
  0.6000189743859394  0.4704713274393768  0.0718277202576374
  0.5035791608359759  0.4898799712337762  0.5043681085037406
  0.2302567776731550  0.2783421848555108  0.6057725797122799
  0.2842250703783051  0.7453529748711532  0.2148841489159778
  0.2136417642897115  0.7462078686842801  0.7580320827701073
  0.8878575567197302  0.2783303112925495  0.2313492898622087
  0.6028901259604211  0.2786045428008279  0.8892883964101443
  0.7580054683837147  0.7450208276658827  0.2851342267173536
  0.7519742201529098  0.7447844824804051  0.7529292740880322
 
  0.00000000E+00  0.00000000E+00  0.00000000E+00
  0.00000000E+00  0.00000000E+00  0.00000000E+00
  0.00000000E+00  0.00000000E+00  0.00000000E+00
  0.00000000E+00  0.00000000E+00  0.00000000E+00
  0.00000000E+00  0.00000000E+00  0.00000000E+00
  0.00000000E+00  0.00000000E+00  0.00000000E+00
  0.00000000E+00  0.00000000E+00  0.00000000E+00
  0.00000000E+00  0.00000000E+00  0.00000000E+00
  0.00000000E+00  0.00000000E+00  0.00000000E+00
  0.00000000E+00  0.00000000E+00  0.00000000E+00
  0.00000000E+00  0.00000000E+00  0.00000000E+00
  0.00000000E+00  0.00000000E+00  0.00000000E+00
  0.00000000E+00  0.00000000E+00  0.00000000E+00
  0.00000000E+00  0.00000000E+00  0.00000000E+00
  0.00000000E+00  0.00000000E+00  0.00000000E+00
  0.00000000E+00  0.00000000E+00  0.00000000E+00
