Mg9 O7
1.0
0.000000 4.246893 4.246893
4.246893 0.000000 4.246893
4.246893 4.246893 0.000000
Mg O
9 7
direct
0.253542 0.250647 0.244667 Mg
0.000000 0.000000 0.000000 Mg
0.012981 0.980851 0.502087 Mg
0.006717 0.505164 0.980174 Mg
0.986570 0.499996 0.521234 Mg
0.473694 0.995949 0.019432 Mg
0.512671 0.009716 0.486358 Mg
0.502240 0.524188 0.011593 Mg
0.500000 0.500000 0.500000 Mg
0.250000 0.250000 0.750000 O
0.250000 0.750000 0.250000 O
0.250000 0.750000 0.750000 O
0.750000 0.250000 0.250000 O
0.750000 0.250000 0.750000 O
0.750000 0.750000 0.250000 O
0.750000 0.750000 0.750000 O
