Mg31 O32                                
   1.00000000000000     
     8.4194560000000003    0.0000000000000000    0.0000000000000000
     0.0000000000000000    8.4194560000000003    0.0000000000000000
     0.0000000000000000    0.0000000000000000    8.4194560000000003
   Mg   O 
    31    32
Direct
  0.0000000000000000  0.0000000000000000  0.5000000000000000
  0.0000000000000000  0.5000000000000000  0.0000000000000000
  0.0000000000000000  0.5000000000000000  0.5000000000000000
  0.5000000000000000  0.0000000000000000  0.0000000000000000
  0.5000000000000000  0.0000000000000000  0.5000000000000000
  0.5000000000000000  0.5000000000000000  0.0000000000000000
  0.5000000000000000  0.5000000000000000  0.5000000000000000
  0.0000000000000000  0.2433862298815299  0.2433862298815299
  0.0000000000000000  0.2433862298815299  0.7566137701184701
  0.0000000000000000  0.7566137701184701  0.2433862298815299
  0.0000000000000000  0.7566137701184701  0.7566137701184701
  0.5000000000000000  0.2484954249135711  0.2484954249135711
  0.5000000000000000  0.2484954249135711  0.7515045750864289
  0.5000000000000000  0.7515045750864289  0.2484954249135711
  0.5000000000000000  0.7515045750864289  0.7515045750864289
  0.2433862298815299  0.0000000000000000  0.2433862298815299
  0.2433862298815299  0.0000000000000000  0.7566137701184701
  0.2484954249135711  0.5000000000000000  0.2484954249135711
  0.2484954249135711  0.5000000000000000  0.7515045750864289
  0.7566137701184701  0.0000000000000000  0.2433862298815299
  0.7566137701184701  0.0000000000000000  0.7566137701184701
  0.7515045750864289  0.5000000000000000  0.2484954249135711
  0.7515045750864289  0.5000000000000000  0.7515045750864289
  0.2433862298815299  0.2433862298815299  0.0000000000000000
  0.2484954249135711  0.2484954249135711  0.5000000000000000
  0.2433862298815299  0.7566137701184701  0.0000000000000000
  0.2484954249135711  0.7515045750864289  0.5000000000000000
  0.7566137701184701  0.2433862298815299  0.0000000000000000
  0.7515045750864289  0.2484954249135711  0.5000000000000000
  0.7566137701184701  0.7566137701184701  0.0000000000000000
  0.7515045750864289  0.7515045750864289  0.5000000000000000
  0.2651814488512656  0.0000000000000000  0.0000000000000000
  0.2525943665616737  0.0000000000000000  0.5000000000000000
  0.2525943665616737  0.5000000000000000  0.0000000000000000
  0.2513028077746782  0.5000000000000000  0.5000000000000000
  0.7348185511487344  0.0000000000000000  0.0000000000000000
  0.7474056334383263  0.0000000000000000  0.5000000000000000
  0.7474056334383263  0.5000000000000000  0.0000000000000000
  0.7486971922253218  0.5000000000000000  0.5000000000000000
  0.2505196356371258  0.2505196356371258  0.2505196356371258
  0.2505196356371258  0.2505196356371258  0.7494803643628742
  0.2505196356371258  0.7494803643628742  0.2505196356371258
  0.2505196356371258  0.7494803643628742  0.7494803643628742
  0.7494803643628742  0.2505196356371258  0.2505196356371258
  0.7494803643628742  0.2505196356371258  0.7494803643628742
  0.7494803643628742  0.7494803643628742  0.2505196356371258
  0.7494803643628742  0.7494803643628742  0.7494803643628742
  0.0000000000000000  0.0000000000000000  0.2651814488512656
  0.0000000000000000  0.0000000000000000  0.7348185511487344
  0.0000000000000000  0.5000000000000000  0.2525943665616737
  0.0000000000000000  0.5000000000000000  0.7474056334383263
  0.5000000000000000  0.0000000000000000  0.2525943665616737
  0.5000000000000000  0.0000000000000000  0.7474056334383263
  0.5000000000000000  0.5000000000000000  0.2513028077746782
  0.5000000000000000  0.5000000000000000  0.7486971922253218
  0.0000000000000000  0.2651814488512656  0.0000000000000000
  0.0000000000000000  0.2525943665616737  0.5000000000000000
  0.0000000000000000  0.7348185511487344  0.0000000000000000
  0.0000000000000000  0.7474056334383263  0.5000000000000000
  0.5000000000000000  0.2525943665616737  0.0000000000000000
  0.5000000000000000  0.2513028077746782  0.5000000000000000
  0.5000000000000000  0.7474056334383263  0.0000000000000000
  0.5000000000000000  0.7486971922253218  0.5000000000000000
 
  0.00000000E+00  0.00000000E+00  0.00000000E+00
  0.00000000E+00  0.00000000E+00  0.00000000E+00
  0.00000000E+00  0.00000000E+00  0.00000000E+00
  0.00000000E+00  0.00000000E+00  0.00000000E+00
  0.00000000E+00  0.00000000E+00  0.00000000E+00
  0.00000000E+00  0.00000000E+00  0.00000000E+00
  0.00000000E+00  0.00000000E+00  0.00000000E+00
  0.00000000E+00  0.00000000E+00  0.00000000E+00
  0.00000000E+00  0.00000000E+00  0.00000000E+00
  0.00000000E+00  0.00000000E+00  0.00000000E+00
  0.00000000E+00  0.00000000E+00  0.00000000E+00
  0.00000000E+00  0.00000000E+00  0.00000000E+00
  0.00000000E+00  0.00000000E+00  0.00000000E+00
  0.00000000E+00  0.00000000E+00  0.00000000E+00
  0.00000000E+00  0.00000000E+00  0.00000000E+00
  0.00000000E+00  0.00000000E+00  0.00000000E+00
  0.00000000E+00  0.00000000E+00  0.00000000E+00
  0.00000000E+00  0.00000000E+00  0.00000000E+00
  0.00000000E+00  0.00000000E+00  0.00000000E+00
  0.00000000E+00  0.00000000E+00  0.00000000E+00
  0.00000000E+00  0.00000000E+00  0.00000000E+00
  0.00000000E+00  0.00000000E+00  0.00000000E+00
  0.00000000E+00  0.00000000E+00  0.00000000E+00
  0.00000000E+00  0.00000000E+00  0.00000000E+00
  0.00000000E+00  0.00000000E+00  0.00000000E+00
  0.00000000E+00  0.00000000E+00  0.00000000E+00
  0.00000000E+00  0.00000000E+00  0.00000000E+00
  0.00000000E+00  0.00000000E+00  0.00000000E+00
  0.00000000E+00  0.00000000E+00  0.00000000E+00
  0.00000000E+00  0.00000000E+00  0.00000000E+00
  0.00000000E+00  0.00000000E+00  0.00000000E+00
  0.00000000E+00  0.00000000E+00  0.00000000E+00
  0.00000000E+00  0.00000000E+00  0.00000000E+00
  0.00000000E+00  0.00000000E+00  0.00000000E+00
  0.00000000E+00  0.00000000E+00  0.00000000E+00
  0.00000000E+00  0.00000000E+00  0.00000000E+00
  0.00000000E+00  0.00000000E+00  0.00000000E+00
  0.00000000E+00  0.00000000E+00  0.00000000E+00
  0.00000000E+00  0.00000000E+00  0.00000000E+00
  0.00000000E+00  0.00000000E+00  0.00000000E+00
  0.00000000E+00  0.00000000E+00  0.00000000E+00
  0.00000000E+00  0.00000000E+00  0.00000000E+00
  0.00000000E+00  0.00000000E+00  0.00000000E+00
  0.00000000E+00  0.00000000E+00  0.00000000E+00
  0.00000000E+00  0.00000000E+00  0.00000000E+00
  0.00000000E+00  0.00000000E+00  0.00000000E+00
  0.00000000E+00  0.00000000E+00  0.00000000E+00
  0.00000000E+00  0.00000000E+00  0.00000000E+00
  0.00000000E+00  0.00000000E+00  0.00000000E+00
  0.00000000E+00  0.00000000E+00  0.00000000E+00
  0.00000000E+00  0.00000000E+00  0.00000000E+00
  0.00000000E+00  0.00000000E+00  0.00000000E+00
  0.00000000E+00  0.00000000E+00  0.00000000E+00
  0.00000000E+00  0.00000000E+00  0.00000000E+00
  0.00000000E+00  0.00000000E+00  0.00000000E+00
  0.00000000E+00  0.00000000E+00  0.00000000E+00
  0.00000000E+00  0.00000000E+00  0.00000000E+00
  0.00000000E+00  0.00000000E+00  0.00000000E+00
  0.00000000E+00  0.00000000E+00  0.00000000E+00
  0.00000000E+00  0.00000000E+00  0.00000000E+00
  0.00000000E+00  0.00000000E+00  0.00000000E+00
  0.00000000E+00  0.00000000E+00  0.00000000E+00
  0.00000000E+00  0.00000000E+00  0.00000000E+00
