K-point mesh generated by pydefect.
0
Gamma
2 2 2
0.5 0.5 0.5
