Mg9 O8                                  
   1.00000000000000     
     0.0000000000000000    4.2468930000000000    4.2468930000000000
     4.2468930000000000    0.0000000000000000    4.2468930000000000
     4.2468930000000000    4.2468930000000000    0.0000000000000000
   Mg   O 
     9     8
Direct
  0.1190455069968408  0.1273450485497563  0.1225327070731765
  0.9756034293569300  0.9761048337127249  0.9751520883526297
  0.9808601001916983  0.9703795487386699  0.5658025635569217
  0.9780158485189219  0.5682552440887534  0.9791205721139420
  0.0013311158181679  0.4948004374548702  0.5017210455475620
  0.5639913009177562  0.9753034237472207  0.9767541406827362
  0.5038024243439168  0.9903581754027115  0.5018853166273090
  0.5037800003175761  0.4958034789126771  0.9980326482955491
  0.5041973559179880  0.4960278121201682  0.5017611017485919
  0.2569130357475089  0.2443471666480832  0.2517298146835927
  0.2635641822908070  0.2428247547806990  0.7395412534684880
  0.2557644202026594  0.7420298532619043  0.2541205785223468
  0.2784838110246710  0.7367515187544811  0.7422769207999451
  0.7372066029061131  0.2459067391603114  0.2594418432107233
  0.7435102482990317  0.2715960782240785  0.7402643181142281
  0.7433901698139138  0.7371472233310499  0.2767034597788935
  0.7440784473354896  0.7352506631118487  0.7423816274233701
 
  0.00000000E+00  0.00000000E+00  0.00000000E+00
  0.00000000E+00  0.00000000E+00  0.00000000E+00
  0.00000000E+00  0.00000000E+00  0.00000000E+00
  0.00000000E+00  0.00000000E+00  0.00000000E+00
  0.00000000E+00  0.00000000E+00  0.00000000E+00
  0.00000000E+00  0.00000000E+00  0.00000000E+00
  0.00000000E+00  0.00000000E+00  0.00000000E+00
  0.00000000E+00  0.00000000E+00  0.00000000E+00
  0.00000000E+00  0.00000000E+00  0.00000000E+00
  0.00000000E+00  0.00000000E+00  0.00000000E+00
  0.00000000E+00  0.00000000E+00  0.00000000E+00
  0.00000000E+00  0.00000000E+00  0.00000000E+00
  0.00000000E+00  0.00000000E+00  0.00000000E+00
  0.00000000E+00  0.00000000E+00  0.00000000E+00
  0.00000000E+00  0.00000000E+00  0.00000000E+00
  0.00000000E+00  0.00000000E+00  0.00000000E+00
  0.00000000E+00  0.00000000E+00  0.00000000E+00
