Mg9 O8                                  
   1.00000000000000     
     0.0000000000000000    4.2468930000000000    4.2468930000000000
     4.2468930000000000    0.0000000000000000    4.2468930000000000
     4.2468930000000000    4.2468930000000000    0.0000000000000000
   Mg   O 
     9     8
Direct
  0.1192764376581579  0.1307917699364225  0.1197770360356643
  0.9765395928101768  0.9756744456649074  0.9758012831947056
  0.9821381481651983  0.9712780523844131  0.5636655594323798
  0.9772713119002177  0.5710038781643831  0.9783533164686844
  0.0006434881940649  0.4946396081024744  0.5022865919804786
  0.5638672968272829  0.9747709328923335  0.9777459277424043
  0.5042889682181482  0.9890698513646470  0.5022001046711111
  0.5036700021040588  0.4953314442181664  0.9984188912998349
  0.5041751300391866  0.4953584176055443  0.5022263922548547
  0.2570823725488509  0.2420983775594010  0.2544543596119766
  0.2633611389997768  0.2415915783126081  0.7382982250120733
  0.2540853875933706  0.7447548798254431  0.2534271128930072
  0.2786312140196259  0.7366668965843530  0.7423355060765857
  0.7378569936074584  0.2437711747109574  0.2600821336710197
  0.7435189921059191  0.2707937887837133  0.7407130385654597
  0.7429058344404424  0.7375094468993666  0.2770444388065911
  0.7442256907680687  0.7351274569908668  0.7423920822831818
 
  0.00000000E+00  0.00000000E+00  0.00000000E+00
  0.00000000E+00  0.00000000E+00  0.00000000E+00
  0.00000000E+00  0.00000000E+00  0.00000000E+00
  0.00000000E+00  0.00000000E+00  0.00000000E+00
  0.00000000E+00  0.00000000E+00  0.00000000E+00
  0.00000000E+00  0.00000000E+00  0.00000000E+00
  0.00000000E+00  0.00000000E+00  0.00000000E+00
  0.00000000E+00  0.00000000E+00  0.00000000E+00
  0.00000000E+00  0.00000000E+00  0.00000000E+00
  0.00000000E+00  0.00000000E+00  0.00000000E+00
  0.00000000E+00  0.00000000E+00  0.00000000E+00
  0.00000000E+00  0.00000000E+00  0.00000000E+00
  0.00000000E+00  0.00000000E+00  0.00000000E+00
  0.00000000E+00  0.00000000E+00  0.00000000E+00
  0.00000000E+00  0.00000000E+00  0.00000000E+00
  0.00000000E+00  0.00000000E+00  0.00000000E+00
  0.00000000E+00  0.00000000E+00  0.00000000E+00
