Mg9 O8
1.0
0.000000 4.246893 4.246893
4.246893 0.000000 4.246893
4.246893 4.246893 0.000000
Mg O
9 8
direct
0.117664 0.129381 0.129658 Mg
0.987159 0.001457 0.991155 Mg
0.014649 0.978437 0.488471 Mg
0.000421 0.495313 0.995789 Mg
0.000000 0.500000 0.500000 Mg
0.496847 0.009929 0.990087 Mg
0.500000 0.000000 0.500000 Mg
0.500000 0.500000 0.000000 Mg
0.500000 0.500000 0.500000 Mg
0.251814 0.248800 0.249152 O
0.268207 0.226872 0.761703 O
0.265524 0.737255 0.257255 O
0.250000 0.750000 0.750000 O
0.751253 0.222788 0.265952 O
0.750000 0.250000 0.750000 O
0.750000 0.750000 0.250000 O
0.750000 0.750000 0.750000 O
