Mg32 O33                                
   1.00000000000000     
     8.4194560000000003    0.0000000000000000    0.0000000000000000
     0.0000000000000000    8.4194560000000003    0.0000000000000000
     0.0000000000000000    0.0000000000000000    8.4194560000000003
   Mg   O 
    32    33
Direct
  0.9961393143631767  0.9961393143631767  0.9961393143631767
  0.9971406132000595  0.9971406132000595  0.5042986727397789
  0.9971406132000595  0.5042986727397789  0.9971406132000595
  0.0004014050747116  0.5010603517085244  0.5010603517085244
  0.5042986727397789  0.9971406132000595  0.9971406132000595
  0.5010603517085244  0.0004014050747116  0.5010603517085244
  0.5010603517085244  0.5010603517085244  0.0004014050747116
  0.4999514022521225  0.4999514022521225  0.4999514022521225
  0.9961393143631767  0.2538606856368233  0.2538606856368233
  0.9971406132000595  0.2528593867999405  0.7457013272602211
  0.9971406132000595  0.7457013272602211  0.2528593867999405
  0.0004014050747116  0.7489396482914756  0.7489396482914756
  0.5042986727397789  0.2528593867999405  0.2528593867999405
  0.5010603517085244  0.2495985949252884  0.7489396482914756
  0.5010603517085244  0.7489396482914756  0.2495985949252884
  0.4999514022521225  0.7500485977478775  0.7500485977478775
  0.2538606856368233  0.9961393143631767  0.2538606856368233
  0.2528593867999405  0.9971406132000595  0.7457013272602211
  0.2528593867999405  0.5042986727397789  0.2528593867999405
  0.2495985949252884  0.5010603517085244  0.7489396482914756
  0.7457013272602211  0.9971406132000595  0.2528593867999405
  0.7489396482914756  0.0004014050747116  0.7489396482914756
  0.7489396482914756  0.5010603517085244  0.2495985949252884
  0.7500485977478775  0.4999514022521225  0.7500485977478775
  0.2538606856368233  0.2538606856368233  0.9961393143631767
  0.2528593867999405  0.2528593867999405  0.5042986727397789
  0.2528593867999405  0.7457013272602211  0.9971406132000595
  0.2495985949252884  0.7489396482914756  0.5010603517085244
  0.7457013272602211  0.2528593867999405  0.9971406132000595
  0.7489396482914756  0.2495985949252884  0.5010603517085244
  0.7489396482914756  0.7489396482914756  0.0004014050747116
  0.7500485977478775  0.7500485977478775  0.4999514022521225
  0.1250000000000000  0.1250000000000000  0.1250000000000000
  0.2766963001931870  0.9733036998068130  0.9733036998068130
  0.2505970197849479  0.9994029802150521  0.5006429364050646
  0.2505970197849479  0.5006429364050646  0.9994029802150521
  0.2503870520250757  0.5045046084126383  0.5045046084126383
  0.7493570635949354  0.9994029802150521  0.9994029802150521
  0.7454953915873617  0.9996129479749243  0.5045046084126383
  0.7454953915873617  0.5045046084126383  0.9996129479749243
  0.7500192072748249  0.4999807927251751  0.4999807927251751
  0.2766963001931870  0.2766963001931870  0.2766963001931870
  0.2505970197849479  0.2505970197849479  0.7493570635949354
  0.2505970197849479  0.7493570635949354  0.2505970197849479
  0.2503870520250757  0.7454953915873617  0.7454953915873617
  0.7493570635949354  0.2505970197849479  0.2505970197849479
  0.7454953915873617  0.2503870520250757  0.7454953915873617
  0.7454953915873617  0.7454953915873617  0.2503870520250757
  0.7500192072748249  0.7500192072748249  0.7500192072748249
  0.9733036998068130  0.9733036998068130  0.2766963001931870
  0.9994029802150521  0.9994029802150521  0.7493570635949354
  0.9994029802150521  0.5006429364050646  0.2505970197849479
  0.9996129479749243  0.5045046084126383  0.7454953915873617
  0.5006429364050646  0.9994029802150521  0.2505970197849479
  0.5045046084126383  0.9996129479749243  0.7454953915873617
  0.5045046084126383  0.5045046084126383  0.2503870520250757
  0.4999807927251751  0.4999807927251751  0.7500192072748249
  0.9733036998068130  0.2766963001931870  0.9733036998068130
  0.9994029802150521  0.2505970197849479  0.5006429364050646
  0.9994029802150521  0.7493570635949354  0.9994029802150521
  0.9996129479749243  0.7454953915873617  0.5045046084126383
  0.5006429364050646  0.2505970197849479  0.9994029802150521
  0.5045046084126383  0.2503870520250757  0.5045046084126383
  0.5045046084126383  0.7454953915873617  0.9996129479749243
  0.4999807927251751  0.7500192072748249  0.4999807927251751
 
  0.00000000E+00  0.00000000E+00  0.00000000E+00
  0.00000000E+00  0.00000000E+00  0.00000000E+00
  0.00000000E+00  0.00000000E+00  0.00000000E+00
  0.00000000E+00  0.00000000E+00  0.00000000E+00
  0.00000000E+00  0.00000000E+00  0.00000000E+00
  0.00000000E+00  0.00000000E+00  0.00000000E+00
  0.00000000E+00  0.00000000E+00  0.00000000E+00
  0.00000000E+00  0.00000000E+00  0.00000000E+00
  0.00000000E+00  0.00000000E+00  0.00000000E+00
  0.00000000E+00  0.00000000E+00  0.00000000E+00
  0.00000000E+00  0.00000000E+00  0.00000000E+00
  0.00000000E+00  0.00000000E+00  0.00000000E+00
  0.00000000E+00  0.00000000E+00  0.00000000E+00
  0.00000000E+00  0.00000000E+00  0.00000000E+00
  0.00000000E+00  0.00000000E+00  0.00000000E+00
  0.00000000E+00  0.00000000E+00  0.00000000E+00
  0.00000000E+00  0.00000000E+00  0.00000000E+00
  0.00000000E+00  0.00000000E+00  0.00000000E+00
  0.00000000E+00  0.00000000E+00  0.00000000E+00
  0.00000000E+00  0.00000000E+00  0.00000000E+00
  0.00000000E+00  0.00000000E+00  0.00000000E+00
  0.00000000E+00  0.00000000E+00  0.00000000E+00
  0.00000000E+00  0.00000000E+00  0.00000000E+00
  0.00000000E+00  0.00000000E+00  0.00000000E+00
  0.00000000E+00  0.00000000E+00  0.00000000E+00
  0.00000000E+00  0.00000000E+00  0.00000000E+00
  0.00000000E+00  0.00000000E+00  0.00000000E+00
  0.00000000E+00  0.00000000E+00  0.00000000E+00
  0.00000000E+00  0.00000000E+00  0.00000000E+00
  0.00000000E+00  0.00000000E+00  0.00000000E+00
  0.00000000E+00  0.00000000E+00  0.00000000E+00
  0.00000000E+00  0.00000000E+00  0.00000000E+00
  0.00000000E+00  0.00000000E+00  0.00000000E+00
  0.00000000E+00  0.00000000E+00  0.00000000E+00
  0.00000000E+00  0.00000000E+00  0.00000000E+00
  0.00000000E+00  0.00000000E+00  0.00000000E+00
  0.00000000E+00  0.00000000E+00  0.00000000E+00
  0.00000000E+00  0.00000000E+00  0.00000000E+00
  0.00000000E+00  0.00000000E+00  0.00000000E+00
  0.00000000E+00  0.00000000E+00  0.00000000E+00
  0.00000000E+00  0.00000000E+00  0.00000000E+00
  0.00000000E+00  0.00000000E+00  0.00000000E+00
  0.00000000E+00  0.00000000E+00  0.00000000E+00
  0.00000000E+00  0.00000000E+00  0.00000000E+00
  0.00000000E+00  0.00000000E+00  0.00000000E+00
  0.00000000E+00  0.00000000E+00  0.00000000E+00
  0.00000000E+00  0.00000000E+00  0.00000000E+00
  0.00000000E+00  0.00000000E+00  0.00000000E+00
  0.00000000E+00  0.00000000E+00  0.00000000E+00
  0.00000000E+00  0.00000000E+00  0.00000000E+00
  0.00000000E+00  0.00000000E+00  0.00000000E+00
  0.00000000E+00  0.00000000E+00  0.00000000E+00
  0.00000000E+00  0.00000000E+00  0.00000000E+00
  0.00000000E+00  0.00000000E+00  0.00000000E+00
  0.00000000E+00  0.00000000E+00  0.00000000E+00
  0.00000000E+00  0.00000000E+00  0.00000000E+00
  0.00000000E+00  0.00000000E+00  0.00000000E+00
  0.00000000E+00  0.00000000E+00  0.00000000E+00
  0.00000000E+00  0.00000000E+00  0.00000000E+00
  0.00000000E+00  0.00000000E+00  0.00000000E+00
  0.00000000E+00  0.00000000E+00  0.00000000E+00
  0.00000000E+00  0.00000000E+00  0.00000000E+00
  0.00000000E+00  0.00000000E+00  0.00000000E+00
  0.00000000E+00  0.00000000E+00  0.00000000E+00
  0.00000000E+00  0.00000000E+00  0.00000000E+00
