Mg O                                    
   1.00000000000000     
     0.0000000000000000    4.2468930196252002    4.2468930196252002
     4.2468930196252002    0.0000000000000000    4.2468930196252002
     4.2468930196252002    4.2468930196252002    0.0000000000000000
   Mg   O 
     8     7
Direct
  0.0000000000000000  0.0000000000000000  0.0000000000000000
 -0.0160593969352110 -0.0160593969352110  0.5160593969352110
 -0.0160593969352110  0.5160593969352110 -0.0160593969352110
 -0.0160593969352110  0.5160593969352110  0.5160593969352110
  0.5160593969352110 -0.0160593969352110 -0.0160593969352110
  0.5160593969352110 -0.0160593969352110  0.5160593969352110
  0.5160593969352110  0.5160593969352110 -0.0160593969352110
  0.5000000000000000  0.5000000000000000  0.5000000000000000
  0.2500000000000000  0.2500000000000000  0.7500000000000000
  0.2500000000000000  0.7500000000000000  0.2500000000000000
  0.2500000000000000  0.7499999999999929  0.7500000000000000
  0.7500000000000000  0.2500000000000000  0.2500000000000000
  0.7499999999999929  0.2500000000000000  0.7500000000000000
  0.7499999999999929  0.7499999999999929  0.2500000000000000
  0.7499999999999929  0.7499999999999929  0.7499999999999929
 
  0.00000000E+00  0.00000000E+00  0.00000000E+00
  0.00000000E+00  0.00000000E+00  0.00000000E+00
  0.00000000E+00  0.00000000E+00  0.00000000E+00
  0.00000000E+00  0.00000000E+00  0.00000000E+00
  0.00000000E+00  0.00000000E+00  0.00000000E+00
  0.00000000E+00  0.00000000E+00  0.00000000E+00
  0.00000000E+00  0.00000000E+00  0.00000000E+00
  0.00000000E+00  0.00000000E+00  0.00000000E+00
  0.00000000E+00  0.00000000E+00  0.00000000E+00
  0.00000000E+00  0.00000000E+00  0.00000000E+00
  0.00000000E+00  0.00000000E+00  0.00000000E+00
  0.00000000E+00  0.00000000E+00  0.00000000E+00
  0.00000000E+00  0.00000000E+00  0.00000000E+00
  0.00000000E+00  0.00000000E+00  0.00000000E+00
  0.00000000E+00  0.00000000E+00  0.00000000E+00
