Fe Co Ni
   10.00000000000000     
0 1 1
1 0 1
1 1 0
Fe Co Ni
 1 1 1
Direct
0.25 0.25 0.25 
0.5 0.875 0.875
0.875 0.25 0.5
