Ba25 Zn11 N24
1.0
8.368575 0.000000 0.000000
0.000000 12.552863 0.000000
0.000000 0.000000 13.054148
Ba Zn N
25 11 24
direct
0.260836 0.819666 0.501210 Ba
0.250000 0.833333 0.156714 Ba
0.250000 0.500000 0.156714 Ba
-0.000000 0.666667 -0.343286 Ba
0.250000 0.166667 0.156714 Ba
-0.000000 0.333333 -0.343286 Ba
-0.000000 0.000000 -0.343286 Ba
0.750000 0.833333 0.156714 Ba
0.750000 0.500000 0.156714 Ba
0.500000 0.666667 -0.343286 Ba
0.750000 0.166667 0.156714 Ba
0.500000 0.333333 -0.343286 Ba
0.500000 0.000000 -0.343286 Ba
0.500000 0.666667 0.343286 Ba
0.500000 0.333333 0.343286 Ba
0.250000 0.500000 -0.156714 Ba
0.500000 -0.000000 0.343286 Ba
0.250000 0.166667 -0.156714 Ba
0.250000 -0.166667 -0.156714 Ba
1.000000 0.666667 0.343286 Ba
1.000000 0.333333 0.343286 Ba
0.750000 0.500000 -0.156714 Ba
1.000000 -0.000000 0.343286 Ba
0.750000 0.166667 -0.156714 Ba
0.750000 -0.166667 -0.156714 Ba
0.250000 0.500000 0.500000 Zn
0.000000 0.666667 0.000000 Zn
0.250000 0.166667 0.500000 Zn
0.000000 0.333333 0.000000 Zn
0.000000 0.000000 0.000000 Zn
0.750000 0.833333 0.500000 Zn
0.750000 0.500000 0.500000 Zn
0.500000 0.666667 0.000000 Zn
0.750000 0.166667 0.500000 Zn
0.500000 0.333333 0.000000 Zn
0.500000 0.000000 0.000000 Zn
0.248807 0.831160 0.359182 N
0.250000 0.500000 0.359634 N
-0.000000 0.666667 -0.140366 N
0.250000 0.166667 0.359634 N
-0.000000 0.333333 -0.140366 N
-0.000000 0.000000 -0.140366 N
0.750000 0.833333 0.359634 N
0.750000 0.500000 0.359634 N
0.500000 0.666667 -0.140366 N
0.750000 0.166667 0.359634 N
0.500000 0.333333 -0.140366 N
0.500000 0.000000 -0.140366 N
0.500000 0.666667 0.140366 N
0.500000 0.333333 0.140366 N
0.250000 0.500000 -0.359634 N
0.500000 -0.000000 0.140366 N
0.250000 0.166667 -0.359634 N
0.247962 0.834997 0.634031 N
1.000000 0.666667 0.140366 N
1.000000 0.333333 0.140366 N
0.750000 0.500000 -0.359634 N
1.000000 -0.000000 0.140366 N
0.750000 0.166667 -0.359634 N
0.750000 -0.166667 -0.359634 N
