Ba23 Zn13 N24
1.0
8.368575 0.000000 0.000000
0.000000 12.552863 0.000000
0.000000 0.000000 13.054148
Ba Zn N
23 13 24
direct
0.250000 0.500000 0.156714 Ba
-0.000000 0.666667 -0.343286 Ba
0.250000 0.166667 0.156714 Ba
-0.000000 0.333333 -0.343286 Ba
-0.000000 0.000000 -0.343286 Ba
0.750000 0.833333 0.156714 Ba
0.750000 0.500000 0.156714 Ba
0.500000 0.666667 -0.343286 Ba
0.750000 0.166667 0.156714 Ba
0.500000 0.333333 -0.343286 Ba
0.500000 0.000000 -0.343286 Ba
0.500000 0.666667 0.343286 Ba
0.500000 0.333333 0.343286 Ba
0.250000 0.500000 -0.156714 Ba
0.500000 -0.000000 0.343286 Ba
0.250000 0.166667 -0.156714 Ba
0.250000 -0.166667 -0.156714 Ba
1.000000 0.666667 0.343286 Ba
1.000000 0.333333 0.343286 Ba
0.750000 0.500000 -0.156714 Ba
1.000000 -0.000000 0.343286 Ba
0.750000 0.166667 -0.156714 Ba
0.750000 -0.166667 -0.156714 Ba
0.251582 0.822221 0.152682 Zn
0.250000 0.833333 0.500000 Zn
0.250000 0.500000 0.500000 Zn
0.000000 0.666667 0.000000 Zn
0.250000 0.166667 0.500000 Zn
0.000000 0.333333 0.000000 Zn
0.000000 0.000000 0.000000 Zn
0.750000 0.833333 0.500000 Zn
0.750000 0.500000 0.500000 Zn
0.500000 0.666667 0.000000 Zn
0.750000 0.166667 0.500000 Zn
0.500000 0.333333 0.000000 Zn
0.500000 0.000000 0.000000 Zn
0.235906 0.823999 0.358055 N
0.250000 0.500000 0.359634 N
-0.000000 0.666667 -0.140366 N
0.250000 0.166667 0.359634 N
-0.000000 0.333333 -0.140366 N
-0.000000 0.000000 -0.140366 N
0.750000 0.833333 0.359634 N
0.750000 0.500000 0.359634 N
0.500000 0.666667 -0.140366 N
0.750000 0.166667 0.359634 N
0.500000 0.333333 -0.140366 N
0.500000 0.000000 -0.140366 N
0.489839 0.675450 0.136806 N
0.500000 0.333333 0.140366 N
0.250000 0.500000 -0.359634 N
0.521279 0.995875 0.141150 N
0.250000 0.166667 -0.359634 N
0.250000 -0.166667 -0.359634 N
0.999140 0.668382 0.139604 N
1.000000 0.333333 0.140366 N
0.750000 0.500000 -0.359634 N
0.005712 0.996638 0.142185 N
0.750000 0.166667 -0.359634 N
0.750000 -0.166667 -0.359634 N
