Mg31 O32                                
   1.00000000000000     
     8.4194560000000003    0.0000000000000000    0.0000000000000000
     0.0000000000000000    8.4194560000000003    0.0000000000000000
     0.0000000000000000    0.0000000000000000    8.4194560000000003
   Mg   O 
    31    32
Direct
  0.0000000000000000  0.0000000000000000  0.0000000000000000
  0.0000000000000000  0.5000000000000000  0.0000000000000000
  0.0000000000000000  0.5000000000000000  0.5000000000000000
  0.5000000000000000  0.0000000000000000  0.0000000000000000
  0.5000000000000000  0.0000000000000000  0.5000000000000000
  0.5000000000000000  0.5000000000000000  0.0000000000000000
  0.5000000000000000  0.5000000000000000  0.5000000000000000
  0.0000000000000000  0.2433861280112453  0.2566138719887547
  0.0000000000000000  0.2433861280112453  0.7433861280112453
  0.0000000000000000  0.7566138719887547  0.2566138719887547
  0.0000000000000000  0.7566138719887547  0.7433861280112453
  0.5000000000000000  0.2484953993094479  0.2515046006905521
  0.5000000000000000  0.2484953993094479  0.7484953993094479
  0.5000000000000000  0.7515046006905521  0.2515046006905521
  0.5000000000000000  0.7515046006905521  0.7484953993094479
  0.2433861280112453  0.0000000000000000  0.2566138719887547
  0.2433861280112453  0.0000000000000000  0.7433861280112453
  0.2484953993094479  0.5000000000000000  0.2515046006905521
  0.2484953993094479  0.5000000000000000  0.7484953993094479
  0.7566138719887547  0.0000000000000000  0.2566138719887547
  0.7566138719887547  0.0000000000000000  0.7433861280112453
  0.7515046006905521  0.5000000000000000  0.2515046006905521
  0.7515046006905521  0.5000000000000000  0.7484953993094479
  0.2484953993094479  0.2484953993094479  0.0000000000000000
  0.2433861280112453  0.2433861280112453  0.5000000000000000
  0.2484953993094479  0.7515046006905521  0.0000000000000000
  0.2433861280112453  0.7566138719887547  0.5000000000000000
  0.7515046006905521  0.2484953993094479  0.0000000000000000
  0.7566138719887547  0.2433861280112453  0.5000000000000000
  0.7515046006905521  0.7515046006905521  0.0000000000000000
  0.7566138719887547  0.7566138719887547  0.5000000000000000
  0.2525944264038245  0.0000000000000000  0.0000000000000000
  0.2651816283951334  0.0000000000000000  0.5000000000000000
  0.2513028251300184  0.5000000000000000  0.0000000000000000
  0.2525944264038245  0.5000000000000000  0.5000000000000000
  0.7474055735961755  0.0000000000000000  0.0000000000000000
  0.7348183716048666  0.0000000000000000  0.5000000000000000
  0.7486971748699816  0.5000000000000000  0.0000000000000000
  0.7474055735961755  0.5000000000000000  0.5000000000000000
  0.2505197128644596  0.2505197128644596  0.2494802871355404
  0.2505197128644596  0.2505197128644596  0.7505197128644596
  0.2505197128644596  0.7494802871355404  0.2494802871355404
  0.2505197128644596  0.7494802871355404  0.7505197128644596
  0.7494802871355404  0.2505197128644596  0.2494802871355404
  0.7494802871355404  0.2505197128644596  0.7505197128644596
  0.7494802871355404  0.7494802871355404  0.2494802871355404
  0.7494802871355404  0.7494802871355404  0.7505197128644596
  0.0000000000000000  0.0000000000000000  0.2348183716048666
  0.0000000000000000  0.0000000000000000  0.7651816283951334
  0.0000000000000000  0.5000000000000000  0.2474055735961755
  0.0000000000000000  0.5000000000000000  0.7525944264038245
  0.5000000000000000  0.0000000000000000  0.2474055735961755
  0.5000000000000000  0.0000000000000000  0.7525944264038245
  0.5000000000000000  0.5000000000000000  0.2486971748699816
  0.5000000000000000  0.5000000000000000  0.7513028251300184
  0.0000000000000000  0.2525944264038245  0.0000000000000000
  0.0000000000000000  0.2651816283951334  0.5000000000000000
  0.0000000000000000  0.7474055735961755  0.0000000000000000
  0.0000000000000000  0.7348183716048666  0.5000000000000000
  0.5000000000000000  0.2513028251300184  0.0000000000000000
  0.5000000000000000  0.2525944264038245  0.5000000000000000
  0.5000000000000000  0.7486971748699816  0.0000000000000000
  0.5000000000000000  0.7474055735961755  0.5000000000000000
 
  0.00000000E+00  0.00000000E+00  0.00000000E+00
  0.00000000E+00  0.00000000E+00  0.00000000E+00
  0.00000000E+00  0.00000000E+00  0.00000000E+00
  0.00000000E+00  0.00000000E+00  0.00000000E+00
  0.00000000E+00  0.00000000E+00  0.00000000E+00
  0.00000000E+00  0.00000000E+00  0.00000000E+00
  0.00000000E+00  0.00000000E+00  0.00000000E+00
  0.00000000E+00  0.00000000E+00  0.00000000E+00
  0.00000000E+00  0.00000000E+00  0.00000000E+00
  0.00000000E+00  0.00000000E+00  0.00000000E+00
  0.00000000E+00  0.00000000E+00  0.00000000E+00
  0.00000000E+00  0.00000000E+00  0.00000000E+00
  0.00000000E+00  0.00000000E+00  0.00000000E+00
  0.00000000E+00  0.00000000E+00  0.00000000E+00
  0.00000000E+00  0.00000000E+00  0.00000000E+00
  0.00000000E+00  0.00000000E+00  0.00000000E+00
  0.00000000E+00  0.00000000E+00  0.00000000E+00
  0.00000000E+00  0.00000000E+00  0.00000000E+00
  0.00000000E+00  0.00000000E+00  0.00000000E+00
  0.00000000E+00  0.00000000E+00  0.00000000E+00
  0.00000000E+00  0.00000000E+00  0.00000000E+00
  0.00000000E+00  0.00000000E+00  0.00000000E+00
  0.00000000E+00  0.00000000E+00  0.00000000E+00
  0.00000000E+00  0.00000000E+00  0.00000000E+00
  0.00000000E+00  0.00000000E+00  0.00000000E+00
  0.00000000E+00  0.00000000E+00  0.00000000E+00
  0.00000000E+00  0.00000000E+00  0.00000000E+00
  0.00000000E+00  0.00000000E+00  0.00000000E+00
  0.00000000E+00  0.00000000E+00  0.00000000E+00
  0.00000000E+00  0.00000000E+00  0.00000000E+00
  0.00000000E+00  0.00000000E+00  0.00000000E+00
  0.00000000E+00  0.00000000E+00  0.00000000E+00
  0.00000000E+00  0.00000000E+00  0.00000000E+00
  0.00000000E+00  0.00000000E+00  0.00000000E+00
  0.00000000E+00  0.00000000E+00  0.00000000E+00
  0.00000000E+00  0.00000000E+00  0.00000000E+00
  0.00000000E+00  0.00000000E+00  0.00000000E+00
  0.00000000E+00  0.00000000E+00  0.00000000E+00
  0.00000000E+00  0.00000000E+00  0.00000000E+00
  0.00000000E+00  0.00000000E+00  0.00000000E+00
  0.00000000E+00  0.00000000E+00  0.00000000E+00
  0.00000000E+00  0.00000000E+00  0.00000000E+00
  0.00000000E+00  0.00000000E+00  0.00000000E+00
  0.00000000E+00  0.00000000E+00  0.00000000E+00
  0.00000000E+00  0.00000000E+00  0.00000000E+00
  0.00000000E+00  0.00000000E+00  0.00000000E+00
  0.00000000E+00  0.00000000E+00  0.00000000E+00
  0.00000000E+00  0.00000000E+00  0.00000000E+00
  0.00000000E+00  0.00000000E+00  0.00000000E+00
  0.00000000E+00  0.00000000E+00  0.00000000E+00
  0.00000000E+00  0.00000000E+00  0.00000000E+00
  0.00000000E+00  0.00000000E+00  0.00000000E+00
  0.00000000E+00  0.00000000E+00  0.00000000E+00
  0.00000000E+00  0.00000000E+00  0.00000000E+00
  0.00000000E+00  0.00000000E+00  0.00000000E+00
  0.00000000E+00  0.00000000E+00  0.00000000E+00
  0.00000000E+00  0.00000000E+00  0.00000000E+00
  0.00000000E+00  0.00000000E+00  0.00000000E+00
  0.00000000E+00  0.00000000E+00  0.00000000E+00
  0.00000000E+00  0.00000000E+00  0.00000000E+00
  0.00000000E+00  0.00000000E+00  0.00000000E+00
  0.00000000E+00  0.00000000E+00  0.00000000E+00
  0.00000000E+00  0.00000000E+00  0.00000000E+00
