Mg31 O32                                
   1.00000000000000     
     8.4194560000000003    0.0000000000000000    0.0000000000000000
     0.0000000000000000    8.4194560000000003    0.0000000000000000
     0.0000000000000000    0.0000000000000000    8.4194560000000003
   Mg   O 
    31    32
Direct
  0.0000000000000000  0.0000000000000000  0.5000000000000000
  0.0000000000000000  0.5000000000000000  0.0000000000000000
  0.0000000000000000  0.5000000000000000  0.5000000000000000
  0.5000000000000000  0.0000000000000000  0.0000000000000000
  0.5000000000000000  0.0000000000000000  0.5000000000000000
  0.5000000000000000  0.5000000000000000  0.0000000000000000
  0.5000000000000000  0.5000000000000000  0.5000000000000000
  0.0000000000000000  0.2433862298816649  0.2433862298816649
  0.0000000000000000  0.2433862298816649  0.7566137701183351
  0.0000000000000000  0.7566137701183351  0.2433862298816649
  0.0000000000000000  0.7566137701183351  0.7566137701183351
  0.5000000000000000  0.2484954249119298  0.2484954249119298
  0.5000000000000000  0.2484954249119298  0.7515045750880702
  0.5000000000000000  0.7515045750880702  0.2484954249119298
  0.5000000000000000  0.7515045750880702  0.7515045750880702
  0.2433862298816649  0.0000000000000000  0.2433862298816649
  0.2433862298816649  0.0000000000000000  0.7566137701183351
  0.2484954249119298  0.5000000000000000  0.2484954249119298
  0.2484954249119298  0.5000000000000000  0.7515045750880702
  0.7566137701183351  0.0000000000000000  0.2433862298816649
  0.7566137701183351  0.0000000000000000  0.7566137701183351
  0.7515045750880702  0.5000000000000000  0.2484954249119298
  0.7515045750880702  0.5000000000000000  0.7515045750880702
  0.2433862298816649  0.2433862298816649  0.0000000000000000
  0.2484954249119298  0.2484954249119298  0.5000000000000000
  0.2433862298816649  0.7566137701183351  0.0000000000000000
  0.2484954249119298  0.7515045750880702  0.5000000000000000
  0.7566137701183351  0.2433862298816649  0.0000000000000000
  0.7515045750880702  0.2484954249119298  0.5000000000000000
  0.7566137701183351  0.7566137701183351  0.0000000000000000
  0.7515045750880702  0.7515045750880702  0.5000000000000000
  0.2651814488511661  0.0000000000000000  0.0000000000000000
  0.2525943665674149  0.0000000000000000  0.5000000000000000
  0.2525943665674149  0.5000000000000000  0.0000000000000000
  0.2513028077711255  0.5000000000000000  0.5000000000000000
  0.7348185511488339  0.0000000000000000  0.0000000000000000
  0.7474056334325851  0.0000000000000000  0.5000000000000000
  0.7474056334325851  0.5000000000000000  0.0000000000000000
  0.7486971922288745  0.5000000000000000  0.5000000000000000
  0.2505196356337791  0.2505196356337791  0.2505196356337791
  0.2505196356337791  0.2505196356337791  0.7494803643662209
  0.2505196356337791  0.7494803643662209  0.2505196356337791
  0.2505196356337791  0.7494803643662209  0.7494803643662209
  0.7494803643662209  0.2505196356337791  0.2505196356337791
  0.7494803643662209  0.2505196356337791  0.7494803643662209
  0.7494803643662209  0.7494803643662209  0.2505196356337791
  0.7494803643662209  0.7494803643662209  0.7494803643662209
  0.0000000000000000  0.0000000000000000  0.2651814488511661
  0.0000000000000000  0.0000000000000000  0.7348185511488339
  0.0000000000000000  0.5000000000000000  0.2525943665674149
  0.0000000000000000  0.5000000000000000  0.7474056334325851
  0.5000000000000000  0.0000000000000000  0.2525943665674149
  0.5000000000000000  0.0000000000000000  0.7474056334325851
  0.5000000000000000  0.5000000000000000  0.2513028077711255
  0.5000000000000000  0.5000000000000000  0.7486971922288745
  0.0000000000000000  0.2651814488511661  0.0000000000000000
  0.0000000000000000  0.2525943665674149  0.5000000000000000
  0.0000000000000000  0.7348185511488339  0.0000000000000000
  0.0000000000000000  0.7474056334325851  0.5000000000000000
  0.5000000000000000  0.2525943665674149  0.0000000000000000
  0.5000000000000000  0.2513028077711255  0.5000000000000000
  0.5000000000000000  0.7474056334325851  0.0000000000000000
  0.5000000000000000  0.7486971922288745  0.5000000000000000
 
  0.00000000E+00  0.00000000E+00  0.00000000E+00
  0.00000000E+00  0.00000000E+00  0.00000000E+00
  0.00000000E+00  0.00000000E+00  0.00000000E+00
  0.00000000E+00  0.00000000E+00  0.00000000E+00
  0.00000000E+00  0.00000000E+00  0.00000000E+00
  0.00000000E+00  0.00000000E+00  0.00000000E+00
  0.00000000E+00  0.00000000E+00  0.00000000E+00
  0.00000000E+00  0.00000000E+00  0.00000000E+00
  0.00000000E+00  0.00000000E+00  0.00000000E+00
  0.00000000E+00  0.00000000E+00  0.00000000E+00
  0.00000000E+00  0.00000000E+00  0.00000000E+00
  0.00000000E+00  0.00000000E+00  0.00000000E+00
  0.00000000E+00  0.00000000E+00  0.00000000E+00
  0.00000000E+00  0.00000000E+00  0.00000000E+00
  0.00000000E+00  0.00000000E+00  0.00000000E+00
  0.00000000E+00  0.00000000E+00  0.00000000E+00
  0.00000000E+00  0.00000000E+00  0.00000000E+00
  0.00000000E+00  0.00000000E+00  0.00000000E+00
  0.00000000E+00  0.00000000E+00  0.00000000E+00
  0.00000000E+00  0.00000000E+00  0.00000000E+00
  0.00000000E+00  0.00000000E+00  0.00000000E+00
  0.00000000E+00  0.00000000E+00  0.00000000E+00
  0.00000000E+00  0.00000000E+00  0.00000000E+00
  0.00000000E+00  0.00000000E+00  0.00000000E+00
  0.00000000E+00  0.00000000E+00  0.00000000E+00
  0.00000000E+00  0.00000000E+00  0.00000000E+00
  0.00000000E+00  0.00000000E+00  0.00000000E+00
  0.00000000E+00  0.00000000E+00  0.00000000E+00
  0.00000000E+00  0.00000000E+00  0.00000000E+00
  0.00000000E+00  0.00000000E+00  0.00000000E+00
  0.00000000E+00  0.00000000E+00  0.00000000E+00
  0.00000000E+00  0.00000000E+00  0.00000000E+00
  0.00000000E+00  0.00000000E+00  0.00000000E+00
  0.00000000E+00  0.00000000E+00  0.00000000E+00
  0.00000000E+00  0.00000000E+00  0.00000000E+00
  0.00000000E+00  0.00000000E+00  0.00000000E+00
  0.00000000E+00  0.00000000E+00  0.00000000E+00
  0.00000000E+00  0.00000000E+00  0.00000000E+00
  0.00000000E+00  0.00000000E+00  0.00000000E+00
  0.00000000E+00  0.00000000E+00  0.00000000E+00
  0.00000000E+00  0.00000000E+00  0.00000000E+00
  0.00000000E+00  0.00000000E+00  0.00000000E+00
  0.00000000E+00  0.00000000E+00  0.00000000E+00
  0.00000000E+00  0.00000000E+00  0.00000000E+00
  0.00000000E+00  0.00000000E+00  0.00000000E+00
  0.00000000E+00  0.00000000E+00  0.00000000E+00
  0.00000000E+00  0.00000000E+00  0.00000000E+00
  0.00000000E+00  0.00000000E+00  0.00000000E+00
  0.00000000E+00  0.00000000E+00  0.00000000E+00
  0.00000000E+00  0.00000000E+00  0.00000000E+00
  0.00000000E+00  0.00000000E+00  0.00000000E+00
  0.00000000E+00  0.00000000E+00  0.00000000E+00
  0.00000000E+00  0.00000000E+00  0.00000000E+00
  0.00000000E+00  0.00000000E+00  0.00000000E+00
  0.00000000E+00  0.00000000E+00  0.00000000E+00
  0.00000000E+00  0.00000000E+00  0.00000000E+00
  0.00000000E+00  0.00000000E+00  0.00000000E+00
  0.00000000E+00  0.00000000E+00  0.00000000E+00
  0.00000000E+00  0.00000000E+00  0.00000000E+00
  0.00000000E+00  0.00000000E+00  0.00000000E+00
  0.00000000E+00  0.00000000E+00  0.00000000E+00
  0.00000000E+00  0.00000000E+00  0.00000000E+00
  0.00000000E+00  0.00000000E+00  0.00000000E+00
