Generated by Obadb. Formula: Mg(AlSe2)2 SG: 166, # kpts: 204
204
Reciprocal
0.0 0.0 0.0 1 None
0.16666666666666666 0.0 0.0 6 None
0.3333333333333333 0.0 0.0 6 None
0.5 0.0 0.0 3 None
0.16666666666666666 0.16666666666666666 0.0 6 None
0.3333333333333333 0.16666666666666666 0.0 12 None
0.5 0.16666666666666666 0.0 12 None
-0.3333333333333333 0.16666666666666666 0.0 12 None
-0.16666666666666666 0.16666666666666666 0.0 6 None
0.3333333333333333 0.3333333333333333 0.0 6 None
0.5 0.3333333333333333 0.0 12 None
-0.3333333333333333 0.3333333333333333 0.0 6 None
0.5 0.5 0.0 3 None
0.16666666666666666 0.16666666666666666 0.16666666666666666 2 None
0.3333333333333333 0.16666666666666666 0.16666666666666666 6 None
0.5 0.16666666666666666 0.16666666666666666 6 None
-0.3333333333333333 0.16666666666666666 0.16666666666666666 6 None
-0.16666666666666666 0.16666666666666666 0.16666666666666666 6 None
0.3333333333333333 0.3333333333333333 0.16666666666666666 6 None
0.5 0.3333333333333333 0.16666666666666666 12 None
-0.3333333333333333 0.3333333333333333 0.16666666666666666 12 None
-0.16666666666666666 0.3333333333333333 0.16666666666666666 12 None
0.5 0.5 0.16666666666666666 6 None
-0.3333333333333333 0.5 0.16666666666666666 12 None
-0.16666666666666666 0.5 0.16666666666666666 6 None
-0.3333333333333333 -0.3333333333333333 0.16666666666666666 6 None
0.3333333333333333 0.3333333333333333 0.3333333333333333 2 None
0.5 0.3333333333333333 0.3333333333333333 6 None
-0.3333333333333333 0.3333333333333333 0.3333333333333333 6 None
0.5 0.5 0.3333333333333333 6 None
-0.3333333333333333 0.5 0.3333333333333333 6 None
0.5 0.5 0.5 1 None
0.0 0.0 0.0 0 GAMMA
0.07142857142857142 0.07142857142857142 0.07142857142857142 0 
0.14285714285714285 0.14285714285714285 0.14285714285714285 0 
0.21428571428571427 0.21428571428571427 0.21428571428571427 0 
0.2857142857142857 0.2857142857142857 0.2857142857142857 0 
0.35714285714285715 0.35714285714285715 0.35714285714285715 0 
0.42857142857142855 0.42857142857142855 0.42857142857142855 0 
0.5 0.5 0.5 0 T
0.5096575540749253 0.49034244592507475 0.5 0 
0.5193151081498505 0.4806848918501495 0.5 0 
0.5289726622247757 0.47102733777522426 0.5 0 
0.538630216299701 0.461369783700299 0.5 0 
0.5482877703746263 0.4517122296253738 0.5 0 
0.5579453244495515 0.44205467555044853 0.5 0 
0.5676028785244767 0.4323971214755233 0.5 0 
0.577260432599402 0.42273956740059804 0.5 0 
0.5869179866743273 0.4130820133256728 0.5 0 
0.5965755407492525 0.40342445925074755 0.5 0 
0.6062330948241776 0.3937669051758223 0.5 0 
0.6158906488991029 0.38410935110089706 0.5 0 
0.6255482029740282 0.3744517970259718 0.5 0 
0.6352057570489534 0.36479424295104657 0.5 0 
0.6448633111238786 0.3551366888761213 0.5 0 
0.6545208651988039 0.3454791348011961 0.5 0 
0.6641784192737292 0.33582158072627083 0.5 0 
0.6738359733486544 0.3261640266513456 0.5 0 
0.6834935274235796 0.31650647257642034 0.5 0 
0.6931510814985049 0.3068489185014951 0.5 0 
0.7028086355734302 0.29719136442656985 0.5 0 
0.7124661896483554 0.2875338103516446 0.5 0 
0.7221237437232806 0.27787625627671936 0.5 0 
0.7317812977982059 0.2682187022017941 0.5 0 
0.7414388518731311 0.2585611481268689 0.5 0 
0.7510964059480564 0.24890359405194362 0.5 0 
0.7607539600229816 0.23924603997701838 0.5 0 
0.7704115140979069 0.22958848590209313 0.5 0 
0.7800690681728322 0.21993093182716789 0.5 0 
0.7897266222477574 0.21027337775224264 0.5 0 
0.7993841763226825 0.2006158236773174 0.5 0 
0.8090417303976079 0.19095826960239215 0.5 0 
0.8186992844725332 0.1813007155274669 0.5 0 
0.8283568385474583 0.17164316145254166 0.5 0 H_2
0.5 -0.17164316145254166 0.17164316145254166 0 H_0
0.5 -0.1615465048965098 0.1615465048965098 0 
0.5 -0.15144984834047792 0.15144984834047792 0 
0.5 -0.14135319178444608 0.14135319178444608 0 
0.5 -0.1312565352284142 0.1312565352284142 0 
0.5 -0.12115987867238234 0.12115987867238234 0 
0.5 -0.11106322211635049 0.11106322211635049 0 
0.5 -0.10096656556031862 0.10096656556031862 0 
0.5 -0.09086990900428676 0.09086990900428676 0 
0.5 -0.08077325244825491 0.08077325244825491 0 
0.5 -0.07067659589222304 0.07067659589222304 0 
0.5 -0.06057993933619117 0.06057993933619117 0 
0.5 -0.050483282780159316 0.050483282780159316 0 
0.5 -0.04038662622412745 0.04038662622412745 0 
0.5 -0.03028996966809558 0.03028996966809558 0 
0.5 -0.02019331311206371 0.02019331311206371 0 
0.5 -0.010096656556031869 0.010096656556031869 0 
0.5 0.0 0.0 0 L
0.48333333333333334 0.0 0.0 0 
0.4666666666666667 0.0 0.0 0 
0.45 0.0 0.0 0 
0.43333333333333335 0.0 0.0 0 
0.4166666666666667 0.0 0.0 0 
0.4 0.0 0.0 0 
0.3833333333333333 0.0 0.0 0 
0.3666666666666667 0.0 0.0 0 
0.35 0.0 0.0 0 
0.33333333333333337 0.0 0.0 0 
0.31666666666666665 0.0 0.0 0 
0.3 0.0 0.0 0 
0.2833333333333333 0.0 0.0 0 
0.26666666666666666 0.0 0.0 0 
0.25 0.0 0.0 0 
0.23333333333333334 0.0 0.0 0 
0.21666666666666667 0.0 0.0 0 
0.2 0.0 0.0 0 
0.18333333333333335 0.0 0.0 0 
0.16666666666666669 0.0 0.0 0 
0.15000000000000002 0.0 0.0 0 
0.13333333333333336 0.0 0.0 0 
0.11666666666666664 0.0 0.0 0 
0.09999999999999998 0.0 0.0 0 
0.08333333333333331 0.0 0.0 0 
0.06666666666666665 0.0 0.0 0 
0.04999999999999999 0.0 0.0 0 
0.033333333333333326 0.0 0.0 0 
0.016666666666666663 0.0 0.0 0 
0.0 0.0 0.0 0 GAMMA
0.00959490230646488 -0.00959490230646488 0.0 0 
0.01918980461292976 -0.01918980461292976 0.0 0 
0.028784706919394644 -0.028784706919394644 0.0 0 
0.03837960922585952 -0.03837960922585952 0.0 0 
0.047974511532324404 -0.047974511532324404 0.0 0 
0.05756941383878929 -0.05756941383878929 0.0 0 
0.06716431614525417 -0.06716431614525417 0.0 0 
0.07675921845171904 -0.07675921845171904 0.0 0 
0.08635412075818392 -0.08635412075818392 0.0 0 
0.09594902306464881 -0.09594902306464881 0.0 0 
0.10554392537111368 -0.10554392537111368 0.0 0 
0.11513882767757858 -0.11513882767757858 0.0 0 
0.12473372998404346 -0.12473372998404346 0.0 0 
0.13432863229050834 -0.13432863229050834 0.0 0 
0.1439235345969732 -0.1439235345969732 0.0 0 
0.15351843690343808 -0.15351843690343808 0.0 0 
0.16311333920990298 -0.16311333920990298 0.0 0 
0.17270824151636785 -0.17270824151636785 0.0 0 
0.18230314382283272 -0.18230314382283272 0.0 0 
0.19189804612929762 -0.19189804612929762 0.0 0 
0.2014929484357625 -0.2014929484357625 0.0 0 
0.21108785074222736 -0.21108785074222736 0.0 0 
0.22068275304869225 -0.22068275304869225 0.0 0 
0.23027765535515715 -0.23027765535515715 0.0 0 
0.239872557661622 -0.239872557661622 0.0 0 
0.24946745996808692 -0.24946745996808692 0.0 0 
0.25906236227455176 -0.25906236227455176 0.0 0 
0.2686572645810167 -0.2686572645810167 0.0 0 
0.2782521668874815 -0.2782521668874815 0.0 0 
0.2878470691939464 -0.2878470691939464 0.0 0 
0.2974419715004113 -0.2974419715004113 0.0 0 
0.30703687380687616 -0.30703687380687616 0.0 0 
0.3166317761133411 -0.3166317761133411 0.0 0 
0.32622667841980596 -0.32622667841980596 0.0 0 
0.33582158072627083 -0.33582158072627083 0.0 0 S_0
0.6641784192737292 0.0 0.33582158072627083 0 S_2
0.6539172680691212 0.0 0.3460827319308789 0 
0.6436561168645131 0.0 0.356343883135487 0 
0.6333949656599049 0.0 0.36660503434009506 0 
0.6231338144552969 0.0 0.37686618554470314 0 
0.6128726632506889 0.0 0.3871273367493112 0 
0.6026115120460808 0.0 0.3973884879539193 0 
0.5923503608414726 0.0 0.40764963915852737 0 
0.5820892096368646 0.0 0.4179107903631354 0 
0.5718280584322566 0.0 0.4281719415677435 0 
0.5615669072276485 0.0 0.43843309277235154 0 
0.5513057560230403 0.0 0.4486942439769596 0 
0.5410446048184323 0.0 0.4589553951815677 0 
0.5307834536138243 0.0 0.46921654638617577 0 
0.5205223024092162 0.0 0.47947769759078385 0 
0.510261151204608 0.0 0.4897388487953919 0 
0.5 0.0 0.5 0 F
0.48333333333333334 0.0 0.48333333333333334 0 
0.4666666666666667 0.0 0.4666666666666667 0 
0.45 0.0 0.45 0 
0.43333333333333335 0.0 0.43333333333333335 0 
0.4166666666666667 0.0 0.4166666666666667 0 
0.4 0.0 0.4 0 
0.3833333333333333 0.0 0.3833333333333333 0 
0.3666666666666667 0.0 0.3666666666666667 0 
0.35 0.0 0.35 0 
0.33333333333333337 0.0 0.33333333333333337 0 
0.31666666666666665 0.0 0.31666666666666665 0 
0.3 0.0 0.3 0 
0.2833333333333333 0.0 0.2833333333333333 0 
0.26666666666666666 0.0 0.26666666666666666 0 
0.25 0.0 0.25 0 
0.23333333333333334 0.0 0.23333333333333334 0 
0.21666666666666667 0.0 0.21666666666666667 0 
0.2 0.0 0.2 0 
0.18333333333333335 0.0 0.18333333333333335 0 
0.16666666666666669 0.0 0.16666666666666669 0 
0.15000000000000002 0.0 0.15000000000000002 0 
0.13333333333333336 0.0 0.13333333333333336 0 
0.11666666666666664 0.0 0.11666666666666664 0 
0.09999999999999998 0.0 0.09999999999999998 0 
0.08333333333333331 0.0 0.08333333333333331 0 
0.06666666666666665 0.0 0.06666666666666665 0 
0.04999999999999999 0.0 0.04999999999999999 0 
0.033333333333333326 0.0 0.033333333333333326 0 
0.016666666666666663 0.0 0.016666666666666663 0 
0.0 0.0 0.0 0 GAMMA
