Mg8 O7
1.0
0.000000 4.246893 4.246893
4.246893 0.000000 4.246893
4.246893 4.246893 0.000000
Mg O
8 7
direct
0.000000 0.000000 0.000000 Mg
0.991242 0.006831 0.513725 Mg
0.990693 0.481232 0.018413 Mg
0.006438 0.485094 0.513099 Mg
0.499351 0.008115 0.021323 Mg
0.501511 0.000019 0.496890 Mg
0.501348 0.498553 0.999084 Mg
0.500000 0.500000 0.500000 Mg
0.250000 0.250000 0.750000 O
0.250000 0.750000 0.250000 O
0.250000 0.750000 0.750000 O
0.750000 0.250000 0.250000 O
0.750000 0.250000 0.750000 O
0.750000 0.750000 0.250000 O
0.750000 0.750000 0.750000 O
