PREC = N ; LREAL = A
LASPH = .TRUE.
 
ISIF = 0 ; EDIFF = 1.0e-06 ; EDIFFG = -0.05

ENCUT = 420
IBRION = 2
NSW = 1
ISMEAR = 0 ; SIGMA = 0.05
NELM = 100 ; NELMIN = 4
ALGO = N
LWAVE = .FALSE.
LCHARG = .FALSE.
IVDW = 12
