Cu32 O16
1.0
8.461124 0.000000 0.000000
0.000000 8.461124 0.000000
0.000000 0.000000 8.461124
Cu O
32 16
direct
0.125000 0.375000 0.375000 Cu+
0.125000 0.375000 0.875000 Cu+
0.125000 0.875000 0.375000 Cu+
0.125000 0.875000 0.875000 Cu+
0.625000 0.375000 0.375000 Cu+
0.625000 0.375000 0.875000 Cu+
0.625000 0.875000 0.375000 Cu+
0.625000 0.875000 0.875000 Cu+
0.375000 0.375000 0.125000 Cu+
0.375000 0.375000 0.625000 Cu+
0.375000 0.875000 0.125000 Cu+
0.375000 0.875000 0.625000 Cu+
0.875000 0.375000 0.125000 Cu+
0.875000 0.375000 0.625000 Cu+
0.875000 0.875000 0.125000 Cu+
0.875000 0.875000 0.625000 Cu+
0.375000 0.125000 0.375000 Cu+
0.375000 0.125000 0.875000 Cu+
0.375000 0.625000 0.375000 Cu+
0.375000 0.625000 0.875000 Cu+
0.875000 0.125000 0.375000 Cu+
0.875000 0.125000 0.875000 Cu+
0.875000 0.625000 0.375000 Cu+
0.875000 0.625000 0.875000 Cu+
0.125000 0.125000 0.125000 Cu+
0.125000 0.125000 0.625000 Cu+
0.125000 0.625000 0.125000 Cu+
0.125000 0.625000 0.625000 Cu+
0.625000 0.125000 0.125000 Cu+
0.625000 0.125000 0.625000 Cu+
0.625000 0.625000 0.125000 Cu+
0.625000 0.625000 0.625000 Cu+
0.000000 0.000000 0.000000 O2-
0.000000 0.000000 0.500000 O2-
0.000000 0.500000 0.000000 O2-
0.000000 0.500000 0.500000 O2-
0.500000 0.000000 0.000000 O2-
0.500000 0.000000 0.500000 O2-
0.500000 0.500000 0.000000 O2-
0.500000 0.500000 0.500000 O2-
0.250000 0.250000 0.250000 O2-
0.250000 0.250000 0.750000 O2-
0.250000 0.750000 0.250000 O2-
0.250000 0.750000 0.750000 O2-
0.750000 0.250000 0.250000 O2-
0.750000 0.250000 0.750000 O2-
0.750000 0.750000 0.250000 O2-
0.750000 0.750000 0.750000 O2-
