Mg32 O31                                
   1.00000000000000     
     8.4194560000000003    0.0000000000000000    0.0000000000000000
     0.0000000000000000    8.4194560000000003    0.0000000000000000
     0.0000000000000000    0.0000000000000000    8.4194560000000003
   Mg   O 
    32    31
Direct
  0.9803802336950938  0.0000000000000000  0.0000000000000000
  0.9976770110374957  0.0000000000000000  0.5000000000000000
  0.9976770110374957  0.5000000000000000  0.0000000000000000
  0.9990054962607857  0.5000000000000000  0.5000000000000000
  0.5196197663049062  0.0000000000000000  0.0000000000000000
  0.5023229889625043  0.0000000000000000  0.5000000000000000
  0.5023229889625043  0.5000000000000000  0.0000000000000000
  0.5009945037392143  0.5000000000000000  0.5000000000000000
  0.9998005960182681  0.2501994039817319  0.2501994039817319
  0.9998005960182681  0.2501994039817319  0.7498005960182681
  0.9998005960182681  0.7498005960182681  0.2501994039817319
  0.9998005960182681  0.7498005960182681  0.7498005960182681
  0.5001994039817319  0.2501994039817319  0.2501994039817319
  0.5001994039817319  0.2501994039817319  0.7498005960182681
  0.5001994039817319  0.7498005960182681  0.2501994039817319
  0.5001994039817319  0.7498005960182681  0.7498005960182681
  0.2500000000000000  0.0000000000000000  0.2696197663049062
  0.2500000000000000  0.0000000000000000  0.7303802336950938
  0.2500000000000000  0.5000000000000000  0.2523229889625043
  0.2500000000000000  0.5000000000000000  0.7476770110374957
  0.7500000000000000  0.0000000000000000  0.2523229889625043
  0.7500000000000000  0.0000000000000000  0.7476770110374957
  0.7500000000000000  0.5000000000000000  0.2509945037392143
  0.7500000000000000  0.5000000000000000  0.7490054962607857
  0.2500000000000000  0.2696197663049062  0.0000000000000000
  0.2500000000000000  0.2523229889625043  0.5000000000000000
  0.2500000000000000  0.7303802336950938  0.0000000000000000
  0.2500000000000000  0.7476770110374957  0.5000000000000000
  0.7500000000000000  0.2523229889625043  0.0000000000000000
  0.7500000000000000  0.2509945037392143  0.5000000000000000
  0.7500000000000000  0.7476770110374957  0.0000000000000000
  0.7500000000000000  0.7490054962607857  0.5000000000000000
  0.2500000000000000  0.0000000000000000  0.5000000000000000
  0.2500000000000000  0.5000000000000000  0.0000000000000000
  0.2500000000000000  0.5000000000000000  0.5000000000000000
  0.7500000000000000  0.0000000000000000  0.0000000000000000
  0.7500000000000000  0.0000000000000000  0.5000000000000000
  0.7500000000000000  0.5000000000000000  0.0000000000000000
  0.7500000000000000  0.5000000000000000  0.5000000000000000
  0.2500000000000000  0.2442397387901920  0.2442397387901920
  0.2500000000000000  0.2442397387901920  0.7557602612098080
  0.2500000000000000  0.7557602612098080  0.2442397387901920
  0.2500000000000000  0.7557602612098080  0.7557602612098080
  0.7500000000000000  0.2486143515349823  0.2486143515349823
  0.7500000000000000  0.2486143515349823  0.7513856484650177
  0.7500000000000000  0.7513856484650177  0.2486143515349823
  0.7500000000000000  0.7513856484650177  0.7513856484650177
  0.0057602612098080  0.0000000000000000  0.2442397387901920
  0.0057602612098080  0.0000000000000000  0.7557602612098080
  0.0013856484650177  0.5000000000000000  0.2486143515349823
  0.0013856484650177  0.5000000000000000  0.7513856484650177
  0.4942397387901920  0.0000000000000000  0.2442397387901920
  0.4942397387901920  0.0000000000000000  0.7557602612098080
  0.4986143515349823  0.5000000000000000  0.2486143515349823
  0.4986143515349823  0.5000000000000000  0.7513856484650177
  0.0057602612098080  0.2442397387901920  0.0000000000000000
  0.0013856484650177  0.2486143515349823  0.5000000000000000
  0.0057602612098080  0.7557602612098080  0.0000000000000000
  0.0013856484650177  0.7513856484650177  0.5000000000000000
  0.4942397387901920  0.2442397387901920  0.0000000000000000
  0.4986143515349823  0.2486143515349823  0.5000000000000000
  0.4942397387901920  0.7557602612098080  0.0000000000000000
  0.4986143515349823  0.7513856484650177  0.5000000000000000
 
  0.00000000E+00  0.00000000E+00  0.00000000E+00
  0.00000000E+00  0.00000000E+00  0.00000000E+00
  0.00000000E+00  0.00000000E+00  0.00000000E+00
  0.00000000E+00  0.00000000E+00  0.00000000E+00
  0.00000000E+00  0.00000000E+00  0.00000000E+00
  0.00000000E+00  0.00000000E+00  0.00000000E+00
  0.00000000E+00  0.00000000E+00  0.00000000E+00
  0.00000000E+00  0.00000000E+00  0.00000000E+00
  0.00000000E+00  0.00000000E+00  0.00000000E+00
  0.00000000E+00  0.00000000E+00  0.00000000E+00
  0.00000000E+00  0.00000000E+00  0.00000000E+00
  0.00000000E+00  0.00000000E+00  0.00000000E+00
  0.00000000E+00  0.00000000E+00  0.00000000E+00
  0.00000000E+00  0.00000000E+00  0.00000000E+00
  0.00000000E+00  0.00000000E+00  0.00000000E+00
  0.00000000E+00  0.00000000E+00  0.00000000E+00
  0.00000000E+00  0.00000000E+00  0.00000000E+00
  0.00000000E+00  0.00000000E+00  0.00000000E+00
  0.00000000E+00  0.00000000E+00  0.00000000E+00
  0.00000000E+00  0.00000000E+00  0.00000000E+00
  0.00000000E+00  0.00000000E+00  0.00000000E+00
  0.00000000E+00  0.00000000E+00  0.00000000E+00
  0.00000000E+00  0.00000000E+00  0.00000000E+00
  0.00000000E+00  0.00000000E+00  0.00000000E+00
  0.00000000E+00  0.00000000E+00  0.00000000E+00
  0.00000000E+00  0.00000000E+00  0.00000000E+00
  0.00000000E+00  0.00000000E+00  0.00000000E+00
  0.00000000E+00  0.00000000E+00  0.00000000E+00
  0.00000000E+00  0.00000000E+00  0.00000000E+00
  0.00000000E+00  0.00000000E+00  0.00000000E+00
  0.00000000E+00  0.00000000E+00  0.00000000E+00
  0.00000000E+00  0.00000000E+00  0.00000000E+00
  0.00000000E+00  0.00000000E+00  0.00000000E+00
  0.00000000E+00  0.00000000E+00  0.00000000E+00
  0.00000000E+00  0.00000000E+00  0.00000000E+00
  0.00000000E+00  0.00000000E+00  0.00000000E+00
  0.00000000E+00  0.00000000E+00  0.00000000E+00
  0.00000000E+00  0.00000000E+00  0.00000000E+00
  0.00000000E+00  0.00000000E+00  0.00000000E+00
  0.00000000E+00  0.00000000E+00  0.00000000E+00
  0.00000000E+00  0.00000000E+00  0.00000000E+00
  0.00000000E+00  0.00000000E+00  0.00000000E+00
  0.00000000E+00  0.00000000E+00  0.00000000E+00
  0.00000000E+00  0.00000000E+00  0.00000000E+00
  0.00000000E+00  0.00000000E+00  0.00000000E+00
  0.00000000E+00  0.00000000E+00  0.00000000E+00
  0.00000000E+00  0.00000000E+00  0.00000000E+00
  0.00000000E+00  0.00000000E+00  0.00000000E+00
  0.00000000E+00  0.00000000E+00  0.00000000E+00
  0.00000000E+00  0.00000000E+00  0.00000000E+00
  0.00000000E+00  0.00000000E+00  0.00000000E+00
  0.00000000E+00  0.00000000E+00  0.00000000E+00
  0.00000000E+00  0.00000000E+00  0.00000000E+00
  0.00000000E+00  0.00000000E+00  0.00000000E+00
  0.00000000E+00  0.00000000E+00  0.00000000E+00
  0.00000000E+00  0.00000000E+00  0.00000000E+00
  0.00000000E+00  0.00000000E+00  0.00000000E+00
  0.00000000E+00  0.00000000E+00  0.00000000E+00
  0.00000000E+00  0.00000000E+00  0.00000000E+00
  0.00000000E+00  0.00000000E+00  0.00000000E+00
  0.00000000E+00  0.00000000E+00  0.00000000E+00
  0.00000000E+00  0.00000000E+00  0.00000000E+00
  0.00000000E+00  0.00000000E+00  0.00000000E+00
