Al4 O6
1.0
2.377011 1.372368 4.326752
-2.377011 1.372368 4.326752
0.000000 -2.744736 4.326752
Al O
4 6
direct
0.351914 0.351914 0.351914 Al
0.851914 0.851914 0.851914 Al
0.648086 0.648086 0.648086 Al
0.148086 0.148086 0.148086 Al
0.250000 0.556225 0.943775 O
0.943775 0.250000 0.556225 O
0.556225 0.943775 0.250000 O
0.056225 0.750000 0.443775 O
0.443775 0.056225 0.750000 O
0.750000 0.443775 0.056225 O