Li2 O3 Ti1-2x2x1
1.0
10.189295 0.000000 -0.016643
0.000000 17.691178 0.000000
-1.724480 0.000000 9.666744
Li Ti O
10 4 15
direct
0.303022 0.661021 0.367017 Li
0.551556 0.491015 0.864094 Li
0.805223 0.492319 0.365721 Li
0.289441 0.490443 0.356268 Li
0.556084 0.400780 0.357086 Li
0.306146 0.327828 0.366619 Li
0.564711 0.587294 0.360705 Li
0.679202 0.659391 0.614786 Li
0.431529 0.494752 0.119825 Li
0.427203 0.402507 0.636125 Li
0.707299 0.491542 0.633838 Ti
0.182099 0.491023 0.614772 Ti
0.677627 0.326478 0.616151 Ti
0.419670 0.587802 0.634564 Ti
0.601946 0.564655 0.711683 O
0.749982 0.568681 0.506066 O
0.261662 0.567551 0.500481 O
0.362679 0.583721 0.232060 O
0.498103 0.322602 0.502526 O
0.624090 0.411427 0.727824 O
0.626699 0.495490 0.230292 O
0.724564 0.413713 0.500467 O
0.237624 0.410016 0.502651 O
0.371703 0.664070 0.738832 O
0.482137 0.658347 0.507114 O
0.613161 0.657692 0.231610 O
0.871864 0.497232 0.741248 O
0.363042 0.498658 0.732568 O
0.362264 0.406434 0.234847 O

0.000000 0.000000 0.000000
0.000000 0.000000 0.000000
0.000000 0.000000 0.000000
0.000000 0.000000 0.000000
0.000000 0.000000 0.000000
0.000000 0.000000 0.000000
0.000000 0.000000 0.000000
0.000000 0.000000 0.000000
0.000000 0.000000 0.000000
0.000000 0.000000 0.000000
0.000000 0.000000 0.000000
0.000000 0.000000 0.000000
0.000000 0.000000 0.000000
0.000000 0.000000 0.000000
0.000000 0.000000 0.000000
0.000000 0.000000 0.000000
0.000000 0.000000 0.000000
0.000000 0.000000 0.000000
0.000000 0.000000 0.000000
0.000000 0.000000 0.000000
0.000000 0.000000 0.000000
0.000000 0.000000 0.000000
0.000000 0.000000 0.000000
0.000000 0.000000 0.000000
0.000000 0.000000 0.000000
0.000000 0.000000 0.000000
0.000000 0.000000 0.000000
0.000000 0.000000 0.000000
0.000000 0.000000 0.000000
