Mg31 O31                                
   1.00000000000000     
     8.4194560000000003    0.0000000000000000    0.0000000000000000
     0.0000000000000000    8.4194560000000003    0.0000000000000000
     0.0000000000000000    0.0000000000000000    8.4194560000000003
   Mg   O 
    31    31
Direct
  0.9995408732696802  0.0000000000000000  0.5000000000000000
  0.9995408732696802  0.5000000000000000  0.0000000000000000
  0.9998540761439045  0.5000000000000000  0.5000000000000000
  0.4954364913160916  0.0000000000000000  0.0000000000000000
  0.5012272596709479  0.0000000000000000  0.5000000000000000
  0.5012272596709479  0.5000000000000000  0.0000000000000000
  0.5001785636450791  0.5000000000000000  0.5000000000000000
  0.0002859733151297  0.2431732771775401  0.2431732771775401
  0.0002859733151297  0.2431732771775401  0.7568267228224599
  0.0002859733151297  0.7568267228224599  0.2431732771775401
  0.0002859733151297  0.7568267228224599  0.7568267228224599
  0.5003486180471128  0.2483159129993666  0.2483159129993666
  0.5003486180471128  0.2483159129993666  0.7516840870006334
  0.5003486180471128  0.7516840870006334  0.2483159129993666
  0.5003486180471128  0.7516840870006334  0.7516840870006334
  0.2441118819202899  0.0000000000000000  0.2465470915694041
  0.2441118819202899  0.0000000000000000  0.7534529084305959
  0.2484474088653670  0.5000000000000000  0.2490587777763054
  0.2484474088653670  0.5000000000000000  0.7509412222236946
  0.7568395468529800  0.0000000000000000  0.2428295119951542
  0.7568395468529800  0.0000000000000000  0.7571704880048458
  0.7519097312591470  0.5000000000000000  0.2483397004856371
  0.7519097312591470  0.5000000000000000  0.7516602995143629
  0.2441118819202899  0.2465470915694041  0.0000000000000000
  0.2484474088653670  0.2490587777763054  0.5000000000000000
  0.2441118819202899  0.7534529084305959  0.0000000000000000
  0.2484474088653670  0.7509412222236946  0.5000000000000000
  0.7568395468529800  0.2428295119951542  0.0000000000000000
  0.7519097312591470  0.2483397004856371  0.5000000000000000
  0.7568395468529800  0.7571704880048458  0.0000000000000000
  0.7519097312591470  0.7516602995143629  0.5000000000000000
  0.2531138576640473  0.0000000000000000  0.5000000000000000
  0.2531138576640473  0.5000000000000000  0.0000000000000000
  0.2510785244200449  0.5000000000000000  0.5000000000000000
  0.7329898501433192  0.0000000000000000  0.0000000000000000
  0.7479694443239637  0.0000000000000000  0.5000000000000000
  0.7479694443239637  0.5000000000000000  0.0000000000000000
  0.7490292784467485  0.5000000000000000  0.5000000000000000
  0.2504267456201887  0.2513147448787478  0.2513147448787478
  0.2504267456201887  0.2513147448787478  0.7486852551212522
  0.2504267456201887  0.7486852551212522  0.2513147448787478
  0.2504267456201887  0.7486852551212522  0.7486852551212522
  0.7501637343811822  0.2502542689463070  0.2502542689463070
  0.7501637343811822  0.2502542689463070  0.7497457310536930
  0.7501637343811822  0.7497457310536930  0.2502542689463070
  0.7501637343811822  0.7497457310536930  0.7497457310536930
  0.0004693133526956  0.0000000000000000  0.2650202391600729
  0.0004693133526956  0.0000000000000000  0.7349797608399271
  0.0001157241453384  0.5000000000000000  0.2526729715106910
  0.0001157241453384  0.5000000000000000  0.7473270284893090
  0.5010205200292219  0.0000000000000000  0.2539465510665053
  0.5010205200292219  0.0000000000000000  0.7460534489334947
  0.5002933887182266  0.5000000000000000  0.2511378511341107
  0.5002933887182266  0.5000000000000000  0.7488621488658893
  0.0004693133526956  0.2650202391600729  0.0000000000000000
  0.0001157241453384  0.2526729715106910  0.5000000000000000
  0.0004693133526956  0.7349797608399271  0.0000000000000000
  0.0001157241453384  0.7473270284893090  0.5000000000000000
  0.5010205200292219  0.2539465510665053  0.0000000000000000
  0.5002933887182266  0.2511378511341107  0.5000000000000000
  0.5010205200292219  0.7460534489334947  0.0000000000000000
  0.5002933887182266  0.7488621488658893  0.5000000000000000
 
  0.00000000E+00  0.00000000E+00  0.00000000E+00
  0.00000000E+00  0.00000000E+00  0.00000000E+00
  0.00000000E+00  0.00000000E+00  0.00000000E+00
  0.00000000E+00  0.00000000E+00  0.00000000E+00
  0.00000000E+00  0.00000000E+00  0.00000000E+00
  0.00000000E+00  0.00000000E+00  0.00000000E+00
  0.00000000E+00  0.00000000E+00  0.00000000E+00
  0.00000000E+00  0.00000000E+00  0.00000000E+00
  0.00000000E+00  0.00000000E+00  0.00000000E+00
  0.00000000E+00  0.00000000E+00  0.00000000E+00
  0.00000000E+00  0.00000000E+00  0.00000000E+00
  0.00000000E+00  0.00000000E+00  0.00000000E+00
  0.00000000E+00  0.00000000E+00  0.00000000E+00
  0.00000000E+00  0.00000000E+00  0.00000000E+00
  0.00000000E+00  0.00000000E+00  0.00000000E+00
  0.00000000E+00  0.00000000E+00  0.00000000E+00
  0.00000000E+00  0.00000000E+00  0.00000000E+00
  0.00000000E+00  0.00000000E+00  0.00000000E+00
  0.00000000E+00  0.00000000E+00  0.00000000E+00
  0.00000000E+00  0.00000000E+00  0.00000000E+00
  0.00000000E+00  0.00000000E+00  0.00000000E+00
  0.00000000E+00  0.00000000E+00  0.00000000E+00
  0.00000000E+00  0.00000000E+00  0.00000000E+00
  0.00000000E+00  0.00000000E+00  0.00000000E+00
  0.00000000E+00  0.00000000E+00  0.00000000E+00
  0.00000000E+00  0.00000000E+00  0.00000000E+00
  0.00000000E+00  0.00000000E+00  0.00000000E+00
  0.00000000E+00  0.00000000E+00  0.00000000E+00
  0.00000000E+00  0.00000000E+00  0.00000000E+00
  0.00000000E+00  0.00000000E+00  0.00000000E+00
  0.00000000E+00  0.00000000E+00  0.00000000E+00
  0.00000000E+00  0.00000000E+00  0.00000000E+00
  0.00000000E+00  0.00000000E+00  0.00000000E+00
  0.00000000E+00  0.00000000E+00  0.00000000E+00
  0.00000000E+00  0.00000000E+00  0.00000000E+00
  0.00000000E+00  0.00000000E+00  0.00000000E+00
  0.00000000E+00  0.00000000E+00  0.00000000E+00
  0.00000000E+00  0.00000000E+00  0.00000000E+00
  0.00000000E+00  0.00000000E+00  0.00000000E+00
  0.00000000E+00  0.00000000E+00  0.00000000E+00
  0.00000000E+00  0.00000000E+00  0.00000000E+00
  0.00000000E+00  0.00000000E+00  0.00000000E+00
  0.00000000E+00  0.00000000E+00  0.00000000E+00
  0.00000000E+00  0.00000000E+00  0.00000000E+00
  0.00000000E+00  0.00000000E+00  0.00000000E+00
  0.00000000E+00  0.00000000E+00  0.00000000E+00
  0.00000000E+00  0.00000000E+00  0.00000000E+00
  0.00000000E+00  0.00000000E+00  0.00000000E+00
  0.00000000E+00  0.00000000E+00  0.00000000E+00
  0.00000000E+00  0.00000000E+00  0.00000000E+00
  0.00000000E+00  0.00000000E+00  0.00000000E+00
  0.00000000E+00  0.00000000E+00  0.00000000E+00
  0.00000000E+00  0.00000000E+00  0.00000000E+00
  0.00000000E+00  0.00000000E+00  0.00000000E+00
  0.00000000E+00  0.00000000E+00  0.00000000E+00
  0.00000000E+00  0.00000000E+00  0.00000000E+00
  0.00000000E+00  0.00000000E+00  0.00000000E+00
  0.00000000E+00  0.00000000E+00  0.00000000E+00
  0.00000000E+00  0.00000000E+00  0.00000000E+00
  0.00000000E+00  0.00000000E+00  0.00000000E+00
  0.00000000E+00  0.00000000E+00  0.00000000E+00
  0.00000000E+00  0.00000000E+00  0.00000000E+00
