Mg31 O31                                
   1.00000000000000     
     8.4194560000000003    0.0000000000000000    0.0000000000000000
     0.0000000000000000    8.4194560000000003    0.0000000000000000
     0.0000000000000000    0.0000000000000000    8.4194560000000003
   Mg   O 
    31    31
Direct
  0.9995408732656657  0.0000000000000000  0.5000000000000000
  0.9995408732656657  0.5000000000000000  0.0000000000000000
  0.9998540761415740  0.5000000000000000  0.5000000000000000
  0.4954364913180456  0.0000000000000000  0.0000000000000000
  0.5012272596737617  0.0000000000000000  0.5000000000000000
  0.5012272596737617  0.5000000000000000  0.0000000000000000
  0.5001785636567675  0.5000000000000000  0.5000000000000000
  0.0002859733109446  0.2431732771784638  0.2431732771784638
  0.0002859733109446  0.2431732771784638  0.7568267228215362
  0.0002859733109446  0.7568267228215362  0.2431732771784638
  0.0002859733109446  0.7568267228215362  0.7568267228215362
  0.5003486180523424  0.2483159130021448  0.2483159130021448
  0.5003486180523424  0.2483159130021448  0.7516840869978552
  0.5003486180523424  0.7516840869978552  0.2483159130021448
  0.5003486180523424  0.7516840869978552  0.7516840869978552
  0.2441118819207091  0.0000000000000000  0.2465470915687433
  0.2441118819207091  0.0000000000000000  0.7534529084312567
  0.2484474088744051  0.5000000000000000  0.2490587777766464
  0.2484474088744051  0.5000000000000000  0.7509412222233536
  0.7568395468459244  0.0000000000000000  0.2428295119973143
  0.7568395468459244  0.0000000000000000  0.7571704880026857
  0.7519097312567737  0.5000000000000000  0.2483397004884722
  0.7519097312567737  0.5000000000000000  0.7516602995115278
  0.2441118819207091  0.2465470915687433  0.0000000000000000
  0.2484474088744051  0.2490587777766464  0.5000000000000000
  0.2441118819207091  0.7534529084312567  0.0000000000000000
  0.2484474088744051  0.7509412222233536  0.5000000000000000
  0.7568395468459244  0.2428295119973143  0.0000000000000000
  0.7519097312567737  0.2483397004884722  0.5000000000000000
  0.7568395468459244  0.7571704880026857  0.0000000000000000
  0.7519097312567737  0.7516602995115278  0.5000000000000000
  0.2531138576700513  0.0000000000000000  0.5000000000000000
  0.2531138576700513  0.5000000000000000  0.0000000000000000
  0.2510785244350515  0.5000000000000000  0.5000000000000000
  0.7329898501562155  0.0000000000000000  0.0000000000000000
  0.7479694443228198  0.0000000000000000  0.5000000000000000
  0.7479694443228198  0.5000000000000000  0.0000000000000000
  0.7490292784596235  0.5000000000000000  0.5000000000000000
  0.2504267456177942  0.2513147448755149  0.2513147448755149
  0.2504267456177942  0.2513147448755149  0.7486852551244851
  0.2504267456177942  0.7486852551244851  0.2513147448755149
  0.2504267456177942  0.7486852551244851  0.7486852551244851
  0.7501637343862768  0.2502542689530358  0.2502542689530358
  0.7501637343862768  0.2502542689530358  0.7497457310469642
  0.7501637343862768  0.7497457310469642  0.2502542689530358
  0.7501637343862768  0.7497457310469642  0.7497457310469642
  0.0004693133415472  0.0000000000000000  0.2650202391584529
  0.0004693133415472  0.0000000000000000  0.7349797608415471
  0.0001157241389649  0.5000000000000000  0.2526729715140092
  0.0001157241389649  0.5000000000000000  0.7473270284859908
  0.5010205200241202  0.0000000000000000  0.2539465510650061
  0.5010205200241202  0.0000000000000000  0.7460534489349939
  0.5002933887222341  0.5000000000000000  0.2511378511303448
  0.5002933887222341  0.5000000000000000  0.7488621488696552
  0.0004693133415472  0.2650202391584529  0.0000000000000000
  0.0001157241389649  0.2526729715140092  0.5000000000000000
  0.0004693133415472  0.7349797608415471  0.0000000000000000
  0.0001157241389649  0.7473270284859908  0.5000000000000000
  0.5010205200241202  0.2539465510650061  0.0000000000000000
  0.5002933887222341  0.2511378511303448  0.5000000000000000
  0.5010205200241202  0.7460534489349939  0.0000000000000000
  0.5002933887222341  0.7488621488696552  0.5000000000000000
 
  0.00000000E+00  0.00000000E+00  0.00000000E+00
  0.00000000E+00  0.00000000E+00  0.00000000E+00
  0.00000000E+00  0.00000000E+00  0.00000000E+00
  0.00000000E+00  0.00000000E+00  0.00000000E+00
  0.00000000E+00  0.00000000E+00  0.00000000E+00
  0.00000000E+00  0.00000000E+00  0.00000000E+00
  0.00000000E+00  0.00000000E+00  0.00000000E+00
  0.00000000E+00  0.00000000E+00  0.00000000E+00
  0.00000000E+00  0.00000000E+00  0.00000000E+00
  0.00000000E+00  0.00000000E+00  0.00000000E+00
  0.00000000E+00  0.00000000E+00  0.00000000E+00
  0.00000000E+00  0.00000000E+00  0.00000000E+00
  0.00000000E+00  0.00000000E+00  0.00000000E+00
  0.00000000E+00  0.00000000E+00  0.00000000E+00
  0.00000000E+00  0.00000000E+00  0.00000000E+00
  0.00000000E+00  0.00000000E+00  0.00000000E+00
  0.00000000E+00  0.00000000E+00  0.00000000E+00
  0.00000000E+00  0.00000000E+00  0.00000000E+00
  0.00000000E+00  0.00000000E+00  0.00000000E+00
  0.00000000E+00  0.00000000E+00  0.00000000E+00
  0.00000000E+00  0.00000000E+00  0.00000000E+00
  0.00000000E+00  0.00000000E+00  0.00000000E+00
  0.00000000E+00  0.00000000E+00  0.00000000E+00
  0.00000000E+00  0.00000000E+00  0.00000000E+00
  0.00000000E+00  0.00000000E+00  0.00000000E+00
  0.00000000E+00  0.00000000E+00  0.00000000E+00
  0.00000000E+00  0.00000000E+00  0.00000000E+00
  0.00000000E+00  0.00000000E+00  0.00000000E+00
  0.00000000E+00  0.00000000E+00  0.00000000E+00
  0.00000000E+00  0.00000000E+00  0.00000000E+00
  0.00000000E+00  0.00000000E+00  0.00000000E+00
  0.00000000E+00  0.00000000E+00  0.00000000E+00
  0.00000000E+00  0.00000000E+00  0.00000000E+00
  0.00000000E+00  0.00000000E+00  0.00000000E+00
  0.00000000E+00  0.00000000E+00  0.00000000E+00
  0.00000000E+00  0.00000000E+00  0.00000000E+00
  0.00000000E+00  0.00000000E+00  0.00000000E+00
  0.00000000E+00  0.00000000E+00  0.00000000E+00
  0.00000000E+00  0.00000000E+00  0.00000000E+00
  0.00000000E+00  0.00000000E+00  0.00000000E+00
  0.00000000E+00  0.00000000E+00  0.00000000E+00
  0.00000000E+00  0.00000000E+00  0.00000000E+00
  0.00000000E+00  0.00000000E+00  0.00000000E+00
  0.00000000E+00  0.00000000E+00  0.00000000E+00
  0.00000000E+00  0.00000000E+00  0.00000000E+00
  0.00000000E+00  0.00000000E+00  0.00000000E+00
  0.00000000E+00  0.00000000E+00  0.00000000E+00
  0.00000000E+00  0.00000000E+00  0.00000000E+00
  0.00000000E+00  0.00000000E+00  0.00000000E+00
  0.00000000E+00  0.00000000E+00  0.00000000E+00
  0.00000000E+00  0.00000000E+00  0.00000000E+00
  0.00000000E+00  0.00000000E+00  0.00000000E+00
  0.00000000E+00  0.00000000E+00  0.00000000E+00
  0.00000000E+00  0.00000000E+00  0.00000000E+00
  0.00000000E+00  0.00000000E+00  0.00000000E+00
  0.00000000E+00  0.00000000E+00  0.00000000E+00
  0.00000000E+00  0.00000000E+00  0.00000000E+00
  0.00000000E+00  0.00000000E+00  0.00000000E+00
  0.00000000E+00  0.00000000E+00  0.00000000E+00
  0.00000000E+00  0.00000000E+00  0.00000000E+00
  0.00000000E+00  0.00000000E+00  0.00000000E+00
  0.00000000E+00  0.00000000E+00  0.00000000E+00
