Mg7 Al1 O8                              
   1.00000000000000     
     0.0000000000000000    4.2468930000000000    4.2468930000000000
     4.2468930000000000    0.0000000000000000    4.2468930000000000
     4.2468930000000000    4.2468930000000000    0.0000000000000000
   Al   Mg   O 
     1     7     8
Direct
  0.0029480222800231  0.9980099342692057  0.0007405900589532
  0.0020526776263381  0.9974651872894142  0.5014808115734368
  0.0019009518660340  0.4977921883822560  0.0015358738579607
  0.0018627368253306  0.4978528660017361  0.5013432077209856
  0.5021047694756646  0.9974330200345207  0.0017574077833160
  0.5022946336470824  0.9974988917151464  0.5011662127652912
  0.5019957362002074  0.4975387639687483  0.0015600902371915
  0.5020609044639315  0.4974192658915442  0.5015376141680576
  0.2521715551921488  0.2474319648947940  0.2513525273785362
  0.2406328193646701  0.2361327269648967  0.7627053727149047
  0.2404603880048199  0.7591870940708105  0.2394244582163623
  0.2406159414097644  0.7590025074063220  0.7631168484212338
  0.7633918007007381  0.2360200761759259  0.2399416345551231
  0.7636479793994511  0.2360132447280066  0.7631852877399297
  0.7629223419684976  0.7581964648229729  0.2408011654358120
  0.7521357415753087  0.7473268033836789  0.7515618973729019
 
  0.00000000E+00  0.00000000E+00  0.00000000E+00
  0.00000000E+00  0.00000000E+00  0.00000000E+00
  0.00000000E+00  0.00000000E+00  0.00000000E+00
  0.00000000E+00  0.00000000E+00  0.00000000E+00
  0.00000000E+00  0.00000000E+00  0.00000000E+00
  0.00000000E+00  0.00000000E+00  0.00000000E+00
  0.00000000E+00  0.00000000E+00  0.00000000E+00
  0.00000000E+00  0.00000000E+00  0.00000000E+00
  0.00000000E+00  0.00000000E+00  0.00000000E+00
  0.00000000E+00  0.00000000E+00  0.00000000E+00
  0.00000000E+00  0.00000000E+00  0.00000000E+00
  0.00000000E+00  0.00000000E+00  0.00000000E+00
  0.00000000E+00  0.00000000E+00  0.00000000E+00
  0.00000000E+00  0.00000000E+00  0.00000000E+00
  0.00000000E+00  0.00000000E+00  0.00000000E+00
  0.00000000E+00  0.00000000E+00  0.00000000E+00
