Mg7 Al1 O8                              
   1.00000000000000     
     0.0000000000000000    4.2468930000000000    4.2468930000000000
     4.2468930000000000    0.0000000000000000    4.2468930000000000
     4.2468930000000000    4.2468930000000000    0.0000000000000000
   Al   Mg   O 
     1     7     8
Direct
  0.0025547803298380  0.9976562744957107  0.0011608906460054
  0.0021140678723697  0.9975463469238903  0.5014177373551405
  0.0018594978021085  0.4976110490218133  0.0016080798201585
  0.0019916790705281  0.4977177271722297  0.5012976251831844
  0.5022331655419379  0.9974713815666405  0.0015366479954864
  0.5021755286146004  0.9973819718714125  0.5012888038799872
  0.5022001277195969  0.4974491425795691  0.0014369964467491
  0.5019917918215597  0.4973197578058972  0.5016721436626881
  0.2520052918447604  0.2474433600046524  0.2514791113664643
  0.2406254115541131  0.2361988006841145  0.7626959098081656
  0.2405652263889593  0.7590025629004984  0.2397925847944649
  0.2408003281852942  0.7589365574753586  0.7627706403170436
  0.7632735570964257  0.2362607042389371  0.2400834653675474
  0.7634453314141183  0.2361240667664148  0.7630632938202666
  0.7632020383860052  0.7585994772284366  0.2404984795890499
  0.7521611763577809  0.7476018192644318  0.7514085899476015
 
  0.00000000E+00  0.00000000E+00  0.00000000E+00
  0.00000000E+00  0.00000000E+00  0.00000000E+00
  0.00000000E+00  0.00000000E+00  0.00000000E+00
  0.00000000E+00  0.00000000E+00  0.00000000E+00
  0.00000000E+00  0.00000000E+00  0.00000000E+00
  0.00000000E+00  0.00000000E+00  0.00000000E+00
  0.00000000E+00  0.00000000E+00  0.00000000E+00
  0.00000000E+00  0.00000000E+00  0.00000000E+00
  0.00000000E+00  0.00000000E+00  0.00000000E+00
  0.00000000E+00  0.00000000E+00  0.00000000E+00
  0.00000000E+00  0.00000000E+00  0.00000000E+00
  0.00000000E+00  0.00000000E+00  0.00000000E+00
  0.00000000E+00  0.00000000E+00  0.00000000E+00
  0.00000000E+00  0.00000000E+00  0.00000000E+00
  0.00000000E+00  0.00000000E+00  0.00000000E+00
  0.00000000E+00  0.00000000E+00  0.00000000E+00
