Mg7 Al1 O8
1.0
0.000000 4.246893 4.246893
4.246893 0.000000 4.246893
4.246893 4.246893 0.000000
Al Mg O
1 7 8
direct
0.981350 0.976661 0.026824 Al
0.000000 0.000000 0.500000 Mg
0.000000 0.500000 0.000000 Mg
0.000000 0.500000 0.500000 Mg
0.500000 0.000000 0.000000 Mg
0.500000 0.000000 0.500000 Mg
0.500000 0.500000 0.000000 Mg
0.500000 0.500000 0.500000 Mg
0.250000 0.250000 0.250000 O
0.264480 0.256591 0.737372 O
0.277126 0.742172 0.229627 O
0.248838 0.746534 0.774353 O
0.749419 0.249972 0.249602 O
0.750572 0.253262 0.751242 O
0.761414 0.735129 0.254191 O
0.750000 0.750000 0.750000 O
