Mg32 O31                                
   1.00000000000000     
     8.4194560000000003    0.0000000000000000    0.0000000000000000
     0.0000000000000000    8.4194560000000003    0.0000000000000000
     0.0000000000000000    0.0000000000000000    8.4194560000000003
   Mg   O 
    32    31
Direct
  0.9803802336951506  0.0000000000000000  0.0000000000000000
  0.9976770110384408  0.0000000000000000  0.5000000000000000
  0.9976770110384408  0.5000000000000000  0.0000000000000000
  0.9990054962627397  0.5000000000000000  0.5000000000000000
  0.5196197663048494  0.0000000000000000  0.0000000000000000
  0.5023229889615592  0.0000000000000000  0.5000000000000000
  0.5023229889615592  0.5000000000000000  0.0000000000000000
  0.5009945037372603  0.5000000000000000  0.5000000000000000
  0.9998005960200658  0.2501994039799342  0.2501994039799342
  0.9998005960200658  0.2501994039799342  0.7498005960200658
  0.9998005960200658  0.7498005960200658  0.2501994039799342
  0.9998005960200658  0.7498005960200658  0.7498005960200658
  0.5001994039799342  0.2501994039799342  0.2501994039799342
  0.5001994039799342  0.2501994039799342  0.7498005960200658
  0.5001994039799342  0.7498005960200658  0.2501994039799342
  0.5001994039799342  0.7498005960200658  0.7498005960200658
  0.2500000000000000  0.0000000000000000  0.2696197663048494
  0.2500000000000000  0.0000000000000000  0.7303802336951506
  0.2500000000000000  0.5000000000000000  0.2523229889615592
  0.2500000000000000  0.5000000000000000  0.7476770110384408
  0.7500000000000000  0.0000000000000000  0.2523229889615592
  0.7500000000000000  0.0000000000000000  0.7476770110384408
  0.7500000000000000  0.5000000000000000  0.2509945037372603
  0.7500000000000000  0.5000000000000000  0.7490054962627397
  0.2500000000000000  0.2696197663048494  0.0000000000000000
  0.2500000000000000  0.2523229889615592  0.5000000000000000
  0.2500000000000000  0.7303802336951506  0.0000000000000000
  0.2500000000000000  0.7476770110384408  0.5000000000000000
  0.7500000000000000  0.2523229889615592  0.0000000000000000
  0.7500000000000000  0.2509945037372603  0.5000000000000000
  0.7500000000000000  0.7476770110384408  0.0000000000000000
  0.7500000000000000  0.7490054962627397  0.5000000000000000
  0.2500000000000000  0.0000000000000000  0.5000000000000000
  0.2500000000000000  0.5000000000000000  0.0000000000000000
  0.2500000000000000  0.5000000000000000  0.5000000000000000
  0.7500000000000000  0.0000000000000000  0.0000000000000000
  0.7500000000000000  0.0000000000000000  0.5000000000000000
  0.7500000000000000  0.5000000000000000  0.0000000000000000
  0.7500000000000000  0.5000000000000000  0.5000000000000000
  0.2500000000000000  0.2442397387902631  0.2442397387902631
  0.2500000000000000  0.2442397387902631  0.7557602612097369
  0.2500000000000000  0.7557602612097369  0.2442397387902631
  0.2500000000000000  0.7557602612097369  0.7557602612097369
  0.7500000000000000  0.2486143515313302  0.2486143515313302
  0.7500000000000000  0.2486143515313302  0.7513856484686698
  0.7500000000000000  0.7513856484686698  0.2486143515313302
  0.7500000000000000  0.7513856484686698  0.7513856484686698
  0.0057602612097369  0.0000000000000000  0.2442397387902631
  0.0057602612097369  0.0000000000000000  0.7557602612097369
  0.0013856484686698  0.5000000000000000  0.2486143515313302
  0.0013856484686698  0.5000000000000000  0.7513856484686698
  0.4942397387902631  0.0000000000000000  0.2442397387902631
  0.4942397387902631  0.0000000000000000  0.7557602612097369
  0.4986143515313302  0.5000000000000000  0.2486143515313302
  0.4986143515313302  0.5000000000000000  0.7513856484686698
  0.0057602612097369  0.2442397387902631  0.0000000000000000
  0.0013856484686698  0.2486143515313302  0.5000000000000000
  0.0057602612097369  0.7557602612097369  0.0000000000000000
  0.0013856484686698  0.7513856484686698  0.5000000000000000
  0.4942397387902631  0.2442397387902631  0.0000000000000000
  0.4986143515313302  0.2486143515313302  0.5000000000000000
  0.4942397387902631  0.7557602612097369  0.0000000000000000
  0.4986143515313302  0.7513856484686698  0.5000000000000000
 
  0.00000000E+00  0.00000000E+00  0.00000000E+00
  0.00000000E+00  0.00000000E+00  0.00000000E+00
  0.00000000E+00  0.00000000E+00  0.00000000E+00
  0.00000000E+00  0.00000000E+00  0.00000000E+00
  0.00000000E+00  0.00000000E+00  0.00000000E+00
  0.00000000E+00  0.00000000E+00  0.00000000E+00
  0.00000000E+00  0.00000000E+00  0.00000000E+00
  0.00000000E+00  0.00000000E+00  0.00000000E+00
  0.00000000E+00  0.00000000E+00  0.00000000E+00
  0.00000000E+00  0.00000000E+00  0.00000000E+00
  0.00000000E+00  0.00000000E+00  0.00000000E+00
  0.00000000E+00  0.00000000E+00  0.00000000E+00
  0.00000000E+00  0.00000000E+00  0.00000000E+00
  0.00000000E+00  0.00000000E+00  0.00000000E+00
  0.00000000E+00  0.00000000E+00  0.00000000E+00
  0.00000000E+00  0.00000000E+00  0.00000000E+00
  0.00000000E+00  0.00000000E+00  0.00000000E+00
  0.00000000E+00  0.00000000E+00  0.00000000E+00
  0.00000000E+00  0.00000000E+00  0.00000000E+00
  0.00000000E+00  0.00000000E+00  0.00000000E+00
  0.00000000E+00  0.00000000E+00  0.00000000E+00
  0.00000000E+00  0.00000000E+00  0.00000000E+00
  0.00000000E+00  0.00000000E+00  0.00000000E+00
  0.00000000E+00  0.00000000E+00  0.00000000E+00
  0.00000000E+00  0.00000000E+00  0.00000000E+00
  0.00000000E+00  0.00000000E+00  0.00000000E+00
  0.00000000E+00  0.00000000E+00  0.00000000E+00
  0.00000000E+00  0.00000000E+00  0.00000000E+00
  0.00000000E+00  0.00000000E+00  0.00000000E+00
  0.00000000E+00  0.00000000E+00  0.00000000E+00
  0.00000000E+00  0.00000000E+00  0.00000000E+00
  0.00000000E+00  0.00000000E+00  0.00000000E+00
  0.00000000E+00  0.00000000E+00  0.00000000E+00
  0.00000000E+00  0.00000000E+00  0.00000000E+00
  0.00000000E+00  0.00000000E+00  0.00000000E+00
  0.00000000E+00  0.00000000E+00  0.00000000E+00
  0.00000000E+00  0.00000000E+00  0.00000000E+00
  0.00000000E+00  0.00000000E+00  0.00000000E+00
  0.00000000E+00  0.00000000E+00  0.00000000E+00
  0.00000000E+00  0.00000000E+00  0.00000000E+00
  0.00000000E+00  0.00000000E+00  0.00000000E+00
  0.00000000E+00  0.00000000E+00  0.00000000E+00
  0.00000000E+00  0.00000000E+00  0.00000000E+00
  0.00000000E+00  0.00000000E+00  0.00000000E+00
  0.00000000E+00  0.00000000E+00  0.00000000E+00
  0.00000000E+00  0.00000000E+00  0.00000000E+00
  0.00000000E+00  0.00000000E+00  0.00000000E+00
  0.00000000E+00  0.00000000E+00  0.00000000E+00
  0.00000000E+00  0.00000000E+00  0.00000000E+00
  0.00000000E+00  0.00000000E+00  0.00000000E+00
  0.00000000E+00  0.00000000E+00  0.00000000E+00
  0.00000000E+00  0.00000000E+00  0.00000000E+00
  0.00000000E+00  0.00000000E+00  0.00000000E+00
  0.00000000E+00  0.00000000E+00  0.00000000E+00
  0.00000000E+00  0.00000000E+00  0.00000000E+00
  0.00000000E+00  0.00000000E+00  0.00000000E+00
  0.00000000E+00  0.00000000E+00  0.00000000E+00
  0.00000000E+00  0.00000000E+00  0.00000000E+00
  0.00000000E+00  0.00000000E+00  0.00000000E+00
  0.00000000E+00  0.00000000E+00  0.00000000E+00
  0.00000000E+00  0.00000000E+00  0.00000000E+00
  0.00000000E+00  0.00000000E+00  0.00000000E+00
  0.00000000E+00  0.00000000E+00  0.00000000E+00
