Mg32 O31                                
   1.00000000000000     
     8.4194560000000003    0.0000000000000000    0.0000000000000000
     0.0000000000000000    8.4194560000000003    0.0000000000000000
     0.0000000000000000    0.0000000000000000    8.4194560000000003
   Mg   O 
    32    31
Direct
  0.9976770108352255  0.0000000000000000  0.0000000000000000
  0.9803802335317968  0.0000000000000000  0.5000000000000000
  0.9990054962061024  0.5000000000000000  0.0000000000000000
  0.9976770108352255  0.5000000000000000  0.5000000000000000
  0.5023229891647745  0.0000000000000000  0.0000000000000000
  0.5196197664682032  0.0000000000000000  0.5000000000000000
  0.5009945037938976  0.5000000000000000  0.0000000000000000
  0.5023229891647745  0.5000000000000000  0.5000000000000000
  0.9998005956781029  0.2501994043218971  0.2498005956781029
  0.9998005956781029  0.2501994043218971  0.7501994043218971
  0.9998005956781029  0.7498005956781029  0.2498005956781029
  0.9998005956781029  0.7498005956781029  0.7501994043218971
  0.5001994043218971  0.2501994043218971  0.2498005956781029
  0.5001994043218971  0.2501994043218971  0.7501994043218971
  0.5001994043218971  0.7498005956781029  0.2498005956781029
  0.5001994043218971  0.7498005956781029  0.7501994043218971
  0.2500000000000000  0.0000000000000000  0.2303802335317968
  0.2500000000000000  0.0000000000000000  0.7696197664682032
  0.2500000000000000  0.5000000000000000  0.2476770108352255
  0.2500000000000000  0.5000000000000000  0.7523229891647745
  0.7500000000000000  0.0000000000000000  0.2476770108352255
  0.7500000000000000  0.0000000000000000  0.7523229891647745
  0.7500000000000000  0.5000000000000000  0.2490054962061024
  0.7500000000000000  0.5000000000000000  0.7509945037938976
  0.2500000000000000  0.2523229891647745  0.0000000000000000
  0.2500000000000000  0.2696197664682032  0.5000000000000000
  0.2500000000000000  0.7476770108352255  0.0000000000000000
  0.2500000000000000  0.7303802335317968  0.5000000000000000
  0.7500000000000000  0.2509945037938976  0.0000000000000000
  0.7500000000000000  0.2523229891647745  0.5000000000000000
  0.7500000000000000  0.7490054962061024  0.0000000000000000
  0.7500000000000000  0.7476770108352255  0.5000000000000000
  0.2500000000000000  0.0000000000000000  0.0000000000000000
  0.2500000000000000  0.5000000000000000  0.0000000000000000
  0.2500000000000000  0.5000000000000000  0.5000000000000000
  0.7500000000000000  0.0000000000000000  0.0000000000000000
  0.7500000000000000  0.0000000000000000  0.5000000000000000
  0.7500000000000000  0.5000000000000000  0.0000000000000000
  0.7500000000000000  0.5000000000000000  0.5000000000000000
  0.2500000000000000  0.2442397391544446  0.2557602608455554
  0.2500000000000000  0.2442397391544446  0.7442397391544446
  0.2500000000000000  0.7557602608455554  0.2557602608455554
  0.2500000000000000  0.7557602608455554  0.7442397391544446
  0.7500000000000000  0.2486143515744601  0.2513856484255399
  0.7500000000000000  0.2486143515744601  0.7486143515744601
  0.7500000000000000  0.7513856484255399  0.2513856484255399
  0.7500000000000000  0.7513856484255399  0.7486143515744601
  0.0057602608455554  0.0000000000000000  0.2557602608455554
  0.0057602608455554  0.0000000000000000  0.7442397391544446
  0.0013856484255399  0.5000000000000000  0.2513856484255399
  0.0013856484255399  0.5000000000000000  0.7486143515744601
  0.4942397391544446  0.0000000000000000  0.2557602608455554
  0.4942397391544446  0.0000000000000000  0.7442397391544446
  0.4986143515744601  0.5000000000000000  0.2513856484255399
  0.4986143515744601  0.5000000000000000  0.7486143515744601
  0.0013856484255399  0.2486143515744601  0.0000000000000000
  0.0057602608455554  0.2442397391544446  0.5000000000000000
  0.0013856484255399  0.7513856484255399  0.0000000000000000
  0.0057602608455554  0.7557602608455554  0.5000000000000000
  0.4986143515744601  0.2486143515744601  0.0000000000000000
  0.4942397391544446  0.2442397391544446  0.5000000000000000
  0.4986143515744601  0.7513856484255399  0.0000000000000000
  0.4942397391544446  0.7557602608455554  0.5000000000000000
 
  0.00000000E+00  0.00000000E+00  0.00000000E+00
  0.00000000E+00  0.00000000E+00  0.00000000E+00
  0.00000000E+00  0.00000000E+00  0.00000000E+00
  0.00000000E+00  0.00000000E+00  0.00000000E+00
  0.00000000E+00  0.00000000E+00  0.00000000E+00
  0.00000000E+00  0.00000000E+00  0.00000000E+00
  0.00000000E+00  0.00000000E+00  0.00000000E+00
  0.00000000E+00  0.00000000E+00  0.00000000E+00
  0.00000000E+00  0.00000000E+00  0.00000000E+00
  0.00000000E+00  0.00000000E+00  0.00000000E+00
  0.00000000E+00  0.00000000E+00  0.00000000E+00
  0.00000000E+00  0.00000000E+00  0.00000000E+00
  0.00000000E+00  0.00000000E+00  0.00000000E+00
  0.00000000E+00  0.00000000E+00  0.00000000E+00
  0.00000000E+00  0.00000000E+00  0.00000000E+00
  0.00000000E+00  0.00000000E+00  0.00000000E+00
  0.00000000E+00  0.00000000E+00  0.00000000E+00
  0.00000000E+00  0.00000000E+00  0.00000000E+00
  0.00000000E+00  0.00000000E+00  0.00000000E+00
  0.00000000E+00  0.00000000E+00  0.00000000E+00
  0.00000000E+00  0.00000000E+00  0.00000000E+00
  0.00000000E+00  0.00000000E+00  0.00000000E+00
  0.00000000E+00  0.00000000E+00  0.00000000E+00
  0.00000000E+00  0.00000000E+00  0.00000000E+00
  0.00000000E+00  0.00000000E+00  0.00000000E+00
  0.00000000E+00  0.00000000E+00  0.00000000E+00
  0.00000000E+00  0.00000000E+00  0.00000000E+00
  0.00000000E+00  0.00000000E+00  0.00000000E+00
  0.00000000E+00  0.00000000E+00  0.00000000E+00
  0.00000000E+00  0.00000000E+00  0.00000000E+00
  0.00000000E+00  0.00000000E+00  0.00000000E+00
  0.00000000E+00  0.00000000E+00  0.00000000E+00
  0.00000000E+00  0.00000000E+00  0.00000000E+00
  0.00000000E+00  0.00000000E+00  0.00000000E+00
  0.00000000E+00  0.00000000E+00  0.00000000E+00
  0.00000000E+00  0.00000000E+00  0.00000000E+00
  0.00000000E+00  0.00000000E+00  0.00000000E+00
  0.00000000E+00  0.00000000E+00  0.00000000E+00
  0.00000000E+00  0.00000000E+00  0.00000000E+00
  0.00000000E+00  0.00000000E+00  0.00000000E+00
  0.00000000E+00  0.00000000E+00  0.00000000E+00
  0.00000000E+00  0.00000000E+00  0.00000000E+00
  0.00000000E+00  0.00000000E+00  0.00000000E+00
  0.00000000E+00  0.00000000E+00  0.00000000E+00
  0.00000000E+00  0.00000000E+00  0.00000000E+00
  0.00000000E+00  0.00000000E+00  0.00000000E+00
  0.00000000E+00  0.00000000E+00  0.00000000E+00
  0.00000000E+00  0.00000000E+00  0.00000000E+00
  0.00000000E+00  0.00000000E+00  0.00000000E+00
  0.00000000E+00  0.00000000E+00  0.00000000E+00
  0.00000000E+00  0.00000000E+00  0.00000000E+00
  0.00000000E+00  0.00000000E+00  0.00000000E+00
  0.00000000E+00  0.00000000E+00  0.00000000E+00
  0.00000000E+00  0.00000000E+00  0.00000000E+00
  0.00000000E+00  0.00000000E+00  0.00000000E+00
  0.00000000E+00  0.00000000E+00  0.00000000E+00
  0.00000000E+00  0.00000000E+00  0.00000000E+00
  0.00000000E+00  0.00000000E+00  0.00000000E+00
  0.00000000E+00  0.00000000E+00  0.00000000E+00
  0.00000000E+00  0.00000000E+00  0.00000000E+00
  0.00000000E+00  0.00000000E+00  0.00000000E+00
  0.00000000E+00  0.00000000E+00  0.00000000E+00
  0.00000000E+00  0.00000000E+00  0.00000000E+00
