Mg33 O32                                
   1.00000000000000     
     8.4194560000000003    0.0000000000000000    0.0000000000000000
     0.0000000000000000    8.4194560000000003    0.0000000000000000
     0.0000000000000000    0.0000000000000000    8.4194560000000003
   Mg   O 
    33    32
Direct
  0.1250000000000000  0.1250000000000000  0.1250000000000000
  0.9691712600302225  0.9691712600302225  0.9691712600302225
  0.9990660838591054  0.9990660838591054  0.5016759004541385
  0.9990660838591054  0.5016759004541385  0.9990660838591054
  0.9995350854446912  0.5057224970492697  0.5057224970492697
  0.5016759004541385  0.9990660838591054  0.9990660838591054
  0.5057224970492697  0.9995350854446912  0.5057224970492697
  0.5057224970492697  0.5057224970492697  0.9995350854446912
  0.5003003447754182  0.5003003447754182  0.5003003447754182
  0.9691712600302225  0.2808287399697775  0.2808287399697775
  0.9990660838591054  0.2509339161408946  0.7483240995458615
  0.9990660838591054  0.7483240995458615  0.2509339161408946
  0.9995350854446912  0.7442775029507303  0.7442775029507303
  0.5016759004541385  0.2509339161408946  0.2509339161408946
  0.5057224970492697  0.2504649145553088  0.7442775029507303
  0.5057224970492697  0.7442775029507303  0.2504649145553088
  0.5003003447754182  0.7496996552245818  0.7496996552245818
  0.2808287399697775  0.9691712600302225  0.2808287399697775
  0.2509339161408946  0.9990660838591054  0.7483240995458615
  0.2509339161408946  0.5016759004541385  0.2509339161408946
  0.2504649145553088  0.5057224970492697  0.7442775029507303
  0.7483240995458615  0.9990660838591054  0.2509339161408946
  0.7442775029507303  0.9995350854446912  0.7442775029507303
  0.7442775029507303  0.5057224970492697  0.2504649145553088
  0.7496996552245818  0.5003003447754182  0.7496996552245818
  0.2808287399697775  0.2808287399697775  0.9691712600302225
  0.2509339161408946  0.2509339161408946  0.5016759004541385
  0.2509339161408946  0.7483240995458615  0.9990660838591054
  0.2504649145553088  0.7442775029507303  0.5057224970492697
  0.7483240995458615  0.2509339161408946  0.9990660838591054
  0.7442775029507303  0.2504649145553088  0.5057224970492697
  0.7442775029507303  0.7442775029507303  0.9995350854446912
  0.7496996552245818  0.7496996552245818  0.5003003447754182
  0.2513428280248604  0.9986571719751396  0.9986571719751396
  0.2514141620826393  0.9985858379173607  0.5054266863783425
  0.2514141620826393  0.5054266863783425  0.9985858379173607
  0.2493074515818705  0.4992639322866808  0.4992639322866808
  0.7445733136216575  0.9985858379173607  0.9985858379173607
  0.7507360677133192  0.0006925484181295  0.4992639322866808
  0.7507360677133192  0.4992639322866808  0.0006925484181295
  0.7504243583304628  0.4995756416695372  0.4995756416695372
  0.2513428280248604  0.2513428280248604  0.2513428280248604
  0.2514141620826393  0.2514141620826393  0.7445733136216575
  0.2514141620826393  0.7445733136216575  0.2514141620826393
  0.2493074515818705  0.7507360677133192  0.7507360677133192
  0.7445733136216575  0.2514141620826393  0.2514141620826393
  0.7507360677133192  0.2493074515818705  0.7507360677133192
  0.7507360677133192  0.7507360677133192  0.2493074515818705
  0.7504243583304628  0.7504243583304628  0.7504243583304628
  0.9986571719751396  0.9986571719751396  0.2513428280248604
  0.9985858379173607  0.9985858379173607  0.7445733136216575
  0.9985858379173607  0.5054266863783425  0.2514141620826393
  0.0006925484181295  0.4992639322866808  0.7507360677133192
  0.5054266863783425  0.9985858379173607  0.2514141620826393
  0.4992639322866808  0.0006925484181295  0.7507360677133192
  0.4992639322866808  0.4992639322866808  0.2493074515818705
  0.4995756416695372  0.4995756416695372  0.7504243583304628
  0.9986571719751396  0.2513428280248604  0.9986571719751396
  0.9985858379173607  0.2514141620826393  0.5054266863783425
  0.9985858379173607  0.7445733136216575  0.9985858379173607
  0.0006925484181295  0.7507360677133192  0.4992639322866808
  0.5054266863783425  0.2514141620826393  0.9985858379173607
  0.4992639322866808  0.2493074515818705  0.4992639322866808
  0.4992639322866808  0.7507360677133192  0.0006925484181295
  0.4995756416695372  0.7504243583304628  0.4995756416695372
 
  0.00000000E+00  0.00000000E+00  0.00000000E+00
  0.00000000E+00  0.00000000E+00  0.00000000E+00
  0.00000000E+00  0.00000000E+00  0.00000000E+00
  0.00000000E+00  0.00000000E+00  0.00000000E+00
  0.00000000E+00  0.00000000E+00  0.00000000E+00
  0.00000000E+00  0.00000000E+00  0.00000000E+00
  0.00000000E+00  0.00000000E+00  0.00000000E+00
  0.00000000E+00  0.00000000E+00  0.00000000E+00
  0.00000000E+00  0.00000000E+00  0.00000000E+00
  0.00000000E+00  0.00000000E+00  0.00000000E+00
  0.00000000E+00  0.00000000E+00  0.00000000E+00
  0.00000000E+00  0.00000000E+00  0.00000000E+00
  0.00000000E+00  0.00000000E+00  0.00000000E+00
  0.00000000E+00  0.00000000E+00  0.00000000E+00
  0.00000000E+00  0.00000000E+00  0.00000000E+00
  0.00000000E+00  0.00000000E+00  0.00000000E+00
  0.00000000E+00  0.00000000E+00  0.00000000E+00
  0.00000000E+00  0.00000000E+00  0.00000000E+00
  0.00000000E+00  0.00000000E+00  0.00000000E+00
  0.00000000E+00  0.00000000E+00  0.00000000E+00
  0.00000000E+00  0.00000000E+00  0.00000000E+00
  0.00000000E+00  0.00000000E+00  0.00000000E+00
  0.00000000E+00  0.00000000E+00  0.00000000E+00
  0.00000000E+00  0.00000000E+00  0.00000000E+00
  0.00000000E+00  0.00000000E+00  0.00000000E+00
  0.00000000E+00  0.00000000E+00  0.00000000E+00
  0.00000000E+00  0.00000000E+00  0.00000000E+00
  0.00000000E+00  0.00000000E+00  0.00000000E+00
  0.00000000E+00  0.00000000E+00  0.00000000E+00
  0.00000000E+00  0.00000000E+00  0.00000000E+00
  0.00000000E+00  0.00000000E+00  0.00000000E+00
  0.00000000E+00  0.00000000E+00  0.00000000E+00
  0.00000000E+00  0.00000000E+00  0.00000000E+00
  0.00000000E+00  0.00000000E+00  0.00000000E+00
  0.00000000E+00  0.00000000E+00  0.00000000E+00
  0.00000000E+00  0.00000000E+00  0.00000000E+00
  0.00000000E+00  0.00000000E+00  0.00000000E+00
  0.00000000E+00  0.00000000E+00  0.00000000E+00
  0.00000000E+00  0.00000000E+00  0.00000000E+00
  0.00000000E+00  0.00000000E+00  0.00000000E+00
  0.00000000E+00  0.00000000E+00  0.00000000E+00
  0.00000000E+00  0.00000000E+00  0.00000000E+00
  0.00000000E+00  0.00000000E+00  0.00000000E+00
  0.00000000E+00  0.00000000E+00  0.00000000E+00
  0.00000000E+00  0.00000000E+00  0.00000000E+00
  0.00000000E+00  0.00000000E+00  0.00000000E+00
  0.00000000E+00  0.00000000E+00  0.00000000E+00
  0.00000000E+00  0.00000000E+00  0.00000000E+00
  0.00000000E+00  0.00000000E+00  0.00000000E+00
  0.00000000E+00  0.00000000E+00  0.00000000E+00
  0.00000000E+00  0.00000000E+00  0.00000000E+00
  0.00000000E+00  0.00000000E+00  0.00000000E+00
  0.00000000E+00  0.00000000E+00  0.00000000E+00
  0.00000000E+00  0.00000000E+00  0.00000000E+00
  0.00000000E+00  0.00000000E+00  0.00000000E+00
  0.00000000E+00  0.00000000E+00  0.00000000E+00
  0.00000000E+00  0.00000000E+00  0.00000000E+00
  0.00000000E+00  0.00000000E+00  0.00000000E+00
  0.00000000E+00  0.00000000E+00  0.00000000E+00
  0.00000000E+00  0.00000000E+00  0.00000000E+00
  0.00000000E+00  0.00000000E+00  0.00000000E+00
  0.00000000E+00  0.00000000E+00  0.00000000E+00
  0.00000000E+00  0.00000000E+00  0.00000000E+00
  0.00000000E+00  0.00000000E+00  0.00000000E+00
  0.00000000E+00  0.00000000E+00  0.00000000E+00
