Mg33 O32                                
   1.00000000000000     
     8.4194560000000003    0.0000000000000000    0.0000000000000000
     0.0000000000000000    8.4194560000000003    0.0000000000000000
     0.0000000000000000    0.0000000000000000    8.4194560000000003
   Mg   O 
    33    32
Direct
  0.1250000000000000  0.1250000000000000  0.1250000000000000
  0.9691712600306559  0.9691712600306559  0.9691712600306559
  0.9990660838579473  0.9990660838579473  0.5016759004562701
  0.9990660838579473  0.5016759004562701  0.9990660838579473
  0.9995350854453591  0.5057224970481755  0.5057224970481755
  0.5016759004562701  0.9990660838579473  0.9990660838579473
  0.5057224970481755  0.9995350854453591  0.5057224970481755
  0.5057224970481755  0.5057224970481755  0.9995350854453591
  0.5003003447774361  0.5003003447774361  0.5003003447774361
  0.9691712600306559  0.2808287399693441  0.2808287399693441
  0.9990660838579473  0.2509339161420527  0.7483240995437299
  0.9990660838579473  0.7483240995437299  0.2509339161420527
  0.9995350854453591  0.7442775029518245  0.7442775029518245
  0.5016759004562701  0.2509339161420527  0.2509339161420527
  0.5057224970481755  0.2504649145546409  0.7442775029518245
  0.5057224970481755  0.7442775029518245  0.2504649145546409
  0.5003003447774361  0.7496996552225639  0.7496996552225639
  0.2808287399693441  0.9691712600306559  0.2808287399693441
  0.2509339161420527  0.9990660838579473  0.7483240995437299
  0.2509339161420527  0.5016759004562701  0.2509339161420527
  0.2504649145546409  0.5057224970481755  0.7442775029518245
  0.7483240995437299  0.9990660838579473  0.2509339161420527
  0.7442775029518245  0.9995350854453591  0.7442775029518245
  0.7442775029518245  0.5057224970481755  0.2504649145546409
  0.7496996552225639  0.5003003447774361  0.7496996552225639
  0.2808287399693441  0.2808287399693441  0.9691712600306559
  0.2509339161420527  0.2509339161420527  0.5016759004562701
  0.2509339161420527  0.7483240995437299  0.9990660838579473
  0.2504649145546409  0.7442775029518245  0.5057224970481755
  0.7483240995437299  0.2509339161420527  0.9990660838579473
  0.7442775029518245  0.2504649145546409  0.5057224970481755
  0.7442775029518245  0.7442775029518245  0.9995350854453591
  0.7496996552225639  0.7496996552225639  0.5003003447774361
  0.2513428280242138  0.9986571719757862  0.9986571719757862
  0.2514141620875918  0.9985858379124082  0.5054266863729495
  0.2514141620875918  0.5054266863729495  0.9985858379124082
  0.2493074515830855  0.4992639322864036  0.4992639322864036
  0.7445733136270505  0.9985858379124082  0.9985858379124082
  0.7507360677135964  0.0006925484169145  0.4992639322864036
  0.7507360677135964  0.4992639322864036  0.0006925484169145
  0.7504243583351879  0.4995756416648121  0.4995756416648121
  0.2513428280242138  0.2513428280242138  0.2513428280242138
  0.2514141620875918  0.2514141620875918  0.7445733136270505
  0.2514141620875918  0.7445733136270505  0.2514141620875918
  0.2493074515830855  0.7507360677135964  0.7507360677135964
  0.7445733136270505  0.2514141620875918  0.2514141620875918
  0.7507360677135964  0.2493074515830855  0.7507360677135964
  0.7507360677135964  0.7507360677135964  0.2493074515830855
  0.7504243583351879  0.7504243583351879  0.7504243583351879
  0.9986571719757862  0.9986571719757862  0.2513428280242138
  0.9985858379124082  0.9985858379124082  0.7445733136270505
  0.9985858379124082  0.5054266863729495  0.2514141620875918
  0.0006925484169145  0.4992639322864036  0.7507360677135964
  0.5054266863729495  0.9985858379124082  0.2514141620875918
  0.4992639322864036  0.0006925484169145  0.7507360677135964
  0.4992639322864036  0.4992639322864036  0.2493074515830855
  0.4995756416648121  0.4995756416648121  0.7504243583351879
  0.9986571719757862  0.2513428280242138  0.9986571719757862
  0.9985858379124082  0.2514141620875918  0.5054266863729495
  0.9985858379124082  0.7445733136270505  0.9985858379124082
  0.0006925484169145  0.7507360677135964  0.4992639322864036
  0.5054266863729495  0.2514141620875918  0.9985858379124082
  0.4992639322864036  0.2493074515830855  0.4992639322864036
  0.4992639322864036  0.7507360677135964  0.0006925484169145
  0.4995756416648121  0.7504243583351879  0.4995756416648121
 
  0.00000000E+00  0.00000000E+00  0.00000000E+00
  0.00000000E+00  0.00000000E+00  0.00000000E+00
  0.00000000E+00  0.00000000E+00  0.00000000E+00
  0.00000000E+00  0.00000000E+00  0.00000000E+00
  0.00000000E+00  0.00000000E+00  0.00000000E+00
  0.00000000E+00  0.00000000E+00  0.00000000E+00
  0.00000000E+00  0.00000000E+00  0.00000000E+00
  0.00000000E+00  0.00000000E+00  0.00000000E+00
  0.00000000E+00  0.00000000E+00  0.00000000E+00
  0.00000000E+00  0.00000000E+00  0.00000000E+00
  0.00000000E+00  0.00000000E+00  0.00000000E+00
  0.00000000E+00  0.00000000E+00  0.00000000E+00
  0.00000000E+00  0.00000000E+00  0.00000000E+00
  0.00000000E+00  0.00000000E+00  0.00000000E+00
  0.00000000E+00  0.00000000E+00  0.00000000E+00
  0.00000000E+00  0.00000000E+00  0.00000000E+00
  0.00000000E+00  0.00000000E+00  0.00000000E+00
  0.00000000E+00  0.00000000E+00  0.00000000E+00
  0.00000000E+00  0.00000000E+00  0.00000000E+00
  0.00000000E+00  0.00000000E+00  0.00000000E+00
  0.00000000E+00  0.00000000E+00  0.00000000E+00
  0.00000000E+00  0.00000000E+00  0.00000000E+00
  0.00000000E+00  0.00000000E+00  0.00000000E+00
  0.00000000E+00  0.00000000E+00  0.00000000E+00
  0.00000000E+00  0.00000000E+00  0.00000000E+00
  0.00000000E+00  0.00000000E+00  0.00000000E+00
  0.00000000E+00  0.00000000E+00  0.00000000E+00
  0.00000000E+00  0.00000000E+00  0.00000000E+00
  0.00000000E+00  0.00000000E+00  0.00000000E+00
  0.00000000E+00  0.00000000E+00  0.00000000E+00
  0.00000000E+00  0.00000000E+00  0.00000000E+00
  0.00000000E+00  0.00000000E+00  0.00000000E+00
  0.00000000E+00  0.00000000E+00  0.00000000E+00
  0.00000000E+00  0.00000000E+00  0.00000000E+00
  0.00000000E+00  0.00000000E+00  0.00000000E+00
  0.00000000E+00  0.00000000E+00  0.00000000E+00
  0.00000000E+00  0.00000000E+00  0.00000000E+00
  0.00000000E+00  0.00000000E+00  0.00000000E+00
  0.00000000E+00  0.00000000E+00  0.00000000E+00
  0.00000000E+00  0.00000000E+00  0.00000000E+00
  0.00000000E+00  0.00000000E+00  0.00000000E+00
  0.00000000E+00  0.00000000E+00  0.00000000E+00
  0.00000000E+00  0.00000000E+00  0.00000000E+00
  0.00000000E+00  0.00000000E+00  0.00000000E+00
  0.00000000E+00  0.00000000E+00  0.00000000E+00
  0.00000000E+00  0.00000000E+00  0.00000000E+00
  0.00000000E+00  0.00000000E+00  0.00000000E+00
  0.00000000E+00  0.00000000E+00  0.00000000E+00
  0.00000000E+00  0.00000000E+00  0.00000000E+00
  0.00000000E+00  0.00000000E+00  0.00000000E+00
  0.00000000E+00  0.00000000E+00  0.00000000E+00
  0.00000000E+00  0.00000000E+00  0.00000000E+00
  0.00000000E+00  0.00000000E+00  0.00000000E+00
  0.00000000E+00  0.00000000E+00  0.00000000E+00
  0.00000000E+00  0.00000000E+00  0.00000000E+00
  0.00000000E+00  0.00000000E+00  0.00000000E+00
  0.00000000E+00  0.00000000E+00  0.00000000E+00
  0.00000000E+00  0.00000000E+00  0.00000000E+00
  0.00000000E+00  0.00000000E+00  0.00000000E+00
  0.00000000E+00  0.00000000E+00  0.00000000E+00
  0.00000000E+00  0.00000000E+00  0.00000000E+00
  0.00000000E+00  0.00000000E+00  0.00000000E+00
  0.00000000E+00  0.00000000E+00  0.00000000E+00
  0.00000000E+00  0.00000000E+00  0.00000000E+00
  0.00000000E+00  0.00000000E+00  0.00000000E+00
