Va_O1_2 DefectSupercell position 0.0 0.0 0.0
   1.00000000000000     
     8.3320336919161608    0.0000000000000000    0.0000000000000000
     0.0000000000000000    8.3320336919161608    0.0000000000000000
     0.0000000000000000    0.0000000000000000    8.3320336919161608
   Mg   O 
    32    31
Direct
  0.2686208772004761  0.0000000000000000  0.0000000000000000
  0.2520634508884498  0.0000000000000000  0.5000000000000000
  0.2520634508884498  0.5000000000000000  0.0000000000000000
  0.2509765639316583  0.5000000000000000  0.5000000000000000
  0.7313791227995239  0.0000000000000000  0.0000000000000000
  0.7479365491115502  0.0000000000000000  0.5000000000000000
  0.7479365491115502  0.5000000000000000  0.0000000000000000
  0.7490234360683417  0.5000000000000000  0.5000000000000000
  0.2503389521496686  0.2503389521496686  0.2503389521496686
  0.2503389521496686  0.2503389521496686  0.7496610478503314
  0.2503389521496686  0.7496610478503314  0.2503389521496686
  0.2503389521496686  0.7496610478503314  0.7496610478503314
  0.7496610478503314  0.2503389521496686  0.2503389521496686
  0.7496610478503314  0.2503389521496686  0.7496610478503314
  0.7496610478503314  0.7496610478503314  0.2503389521496686
  0.7496610478503314  0.7496610478503314  0.7496610478503314
  0.0000000000000000  0.0000000000000000  0.2686208772004761
  0.0000000000000000  0.0000000000000000  0.7313791227995239
  0.0000000000000000  0.5000000000000000  0.2520634508884498
  0.0000000000000000  0.5000000000000000  0.7479365491115502
  0.5000000000000000  0.0000000000000000  0.2520634508884498
  0.5000000000000000  0.0000000000000000  0.7479365491115502
  0.5000000000000000  0.5000000000000000  0.2509765639316583
  0.5000000000000000  0.5000000000000000  0.7490234360683417
  0.0000000000000000  0.2686208772004761  0.0000000000000000
  0.0000000000000000  0.2520634508884498  0.5000000000000000
  0.0000000000000000  0.7313791227995239  0.0000000000000000
  0.0000000000000000  0.7479365491115502  0.5000000000000000
  0.5000000000000000  0.2520634508884498  0.0000000000000000
  0.5000000000000000  0.2509765639316583  0.5000000000000000
  0.5000000000000000  0.7479365491115502  0.0000000000000000
  0.5000000000000000  0.7490234360683417  0.5000000000000000
  0.0000000000000000  0.0000000000000000  0.5000000000000000
  0.0000000000000000  0.5000000000000000  0.0000000000000000
  0.0000000000000000  0.5000000000000000  0.5000000000000000
  0.5000000000000000  0.0000000000000000  0.0000000000000000
  0.5000000000000000  0.0000000000000000  0.5000000000000000
  0.5000000000000000  0.5000000000000000  0.0000000000000000
  0.5000000000000000  0.5000000000000000  0.5000000000000000
  0.0000000000000000  0.2443531094955418  0.2443531094955418
  0.0000000000000000  0.2443531094955418  0.7556468905044582
  0.0000000000000000  0.7556468905044582  0.2443531094955418
  0.0000000000000000  0.7556468905044582  0.7556468905044582
  0.5000000000000000  0.2486535231791791  0.2486535231791791
  0.5000000000000000  0.2486535231791791  0.7513464768208209
  0.5000000000000000  0.7513464768208209  0.2486535231791791
  0.5000000000000000  0.7513464768208209  0.7513464768208209
  0.2443531094955418  0.0000000000000000  0.2443531094955418
  0.2443531094955418  0.0000000000000000  0.7556468905044582
  0.2486535231791791  0.5000000000000000  0.2486535231791791
  0.2486535231791791  0.5000000000000000  0.7513464768208209
  0.7556468905044582  0.0000000000000000  0.2443531094955418
  0.7556468905044582  0.0000000000000000  0.7556468905044582
  0.7513464768208209  0.5000000000000000  0.2486535231791791
  0.7513464768208209  0.5000000000000000  0.7513464768208209
  0.2443531094955418  0.2443531094955418  0.0000000000000000
  0.2486535231791791  0.2486535231791791  0.5000000000000000
  0.2443531094955418  0.7556468905044582  0.0000000000000000
  0.2486535231791791  0.7513464768208209  0.5000000000000000
  0.7556468905044582  0.2443531094955418  0.0000000000000000
  0.7513464768208209  0.2486535231791791  0.5000000000000000
  0.7556468905044582  0.7556468905044582  0.0000000000000000
  0.7513464768208209  0.7513464768208209  0.5000000000000000
 
  0.00000000E+00  0.00000000E+00  0.00000000E+00
  0.00000000E+00  0.00000000E+00  0.00000000E+00
  0.00000000E+00  0.00000000E+00  0.00000000E+00
  0.00000000E+00  0.00000000E+00  0.00000000E+00
  0.00000000E+00  0.00000000E+00  0.00000000E+00
  0.00000000E+00  0.00000000E+00  0.00000000E+00
  0.00000000E+00  0.00000000E+00  0.00000000E+00
  0.00000000E+00  0.00000000E+00  0.00000000E+00
  0.00000000E+00  0.00000000E+00  0.00000000E+00
  0.00000000E+00  0.00000000E+00  0.00000000E+00
  0.00000000E+00  0.00000000E+00  0.00000000E+00
  0.00000000E+00  0.00000000E+00  0.00000000E+00
  0.00000000E+00  0.00000000E+00  0.00000000E+00
  0.00000000E+00  0.00000000E+00  0.00000000E+00
  0.00000000E+00  0.00000000E+00  0.00000000E+00
  0.00000000E+00  0.00000000E+00  0.00000000E+00
  0.00000000E+00  0.00000000E+00  0.00000000E+00
  0.00000000E+00  0.00000000E+00  0.00000000E+00
  0.00000000E+00  0.00000000E+00  0.00000000E+00
  0.00000000E+00  0.00000000E+00  0.00000000E+00
  0.00000000E+00  0.00000000E+00  0.00000000E+00
  0.00000000E+00  0.00000000E+00  0.00000000E+00
  0.00000000E+00  0.00000000E+00  0.00000000E+00
  0.00000000E+00  0.00000000E+00  0.00000000E+00
  0.00000000E+00  0.00000000E+00  0.00000000E+00
  0.00000000E+00  0.00000000E+00  0.00000000E+00
  0.00000000E+00  0.00000000E+00  0.00000000E+00
  0.00000000E+00  0.00000000E+00  0.00000000E+00
  0.00000000E+00  0.00000000E+00  0.00000000E+00
  0.00000000E+00  0.00000000E+00  0.00000000E+00
  0.00000000E+00  0.00000000E+00  0.00000000E+00
  0.00000000E+00  0.00000000E+00  0.00000000E+00
  0.00000000E+00  0.00000000E+00  0.00000000E+00
  0.00000000E+00  0.00000000E+00  0.00000000E+00
  0.00000000E+00  0.00000000E+00  0.00000000E+00
  0.00000000E+00  0.00000000E+00  0.00000000E+00
  0.00000000E+00  0.00000000E+00  0.00000000E+00
  0.00000000E+00  0.00000000E+00  0.00000000E+00
  0.00000000E+00  0.00000000E+00  0.00000000E+00
  0.00000000E+00  0.00000000E+00  0.00000000E+00
  0.00000000E+00  0.00000000E+00  0.00000000E+00
  0.00000000E+00  0.00000000E+00  0.00000000E+00
  0.00000000E+00  0.00000000E+00  0.00000000E+00
  0.00000000E+00  0.00000000E+00  0.00000000E+00
  0.00000000E+00  0.00000000E+00  0.00000000E+00
  0.00000000E+00  0.00000000E+00  0.00000000E+00
  0.00000000E+00  0.00000000E+00  0.00000000E+00
  0.00000000E+00  0.00000000E+00  0.00000000E+00
  0.00000000E+00  0.00000000E+00  0.00000000E+00
  0.00000000E+00  0.00000000E+00  0.00000000E+00
  0.00000000E+00  0.00000000E+00  0.00000000E+00
  0.00000000E+00  0.00000000E+00  0.00000000E+00
  0.00000000E+00  0.00000000E+00  0.00000000E+00
  0.00000000E+00  0.00000000E+00  0.00000000E+00
  0.00000000E+00  0.00000000E+00  0.00000000E+00
  0.00000000E+00  0.00000000E+00  0.00000000E+00
  0.00000000E+00  0.00000000E+00  0.00000000E+00
  0.00000000E+00  0.00000000E+00  0.00000000E+00
  0.00000000E+00  0.00000000E+00  0.00000000E+00
  0.00000000E+00  0.00000000E+00  0.00000000E+00
  0.00000000E+00  0.00000000E+00  0.00000000E+00
  0.00000000E+00  0.00000000E+00  0.00000000E+00
  0.00000000E+00  0.00000000E+00  0.00000000E+00
