Ba24 Zn12 N23
1.0
8.368575 0.000000 0.000000
0.000000 12.552863 0.000000
0.000000 0.000000 13.054148
Ba Zn N
24 12 23
direct
0.247776 0.833877 0.159762 Ba
0.250000 0.500000 0.156714 Ba
-0.000000 0.666667 -0.343286 Ba
0.250000 0.166667 0.156714 Ba
-0.000000 0.333333 -0.343286 Ba
-0.000000 0.000000 -0.343286 Ba
0.750000 0.833333 0.156714 Ba
0.750000 0.500000 0.156714 Ba
0.500000 0.666667 -0.343286 Ba
0.750000 0.166667 0.156714 Ba
0.500000 0.333333 -0.343286 Ba
0.500000 0.000000 -0.343286 Ba
0.510929 0.667935 0.346767 Ba
0.500000 0.333333 0.343286 Ba
0.250000 0.500000 -0.156714 Ba
0.497717 0.999369 0.343743 Ba
0.250000 0.166667 -0.156714 Ba
0.250000 -0.166667 -0.156714 Ba
0.004723 0.663106 0.338862 Ba
1.000000 0.333333 0.343286 Ba
0.750000 0.500000 -0.156714 Ba
0.987316 0.000010 0.341499 Ba
0.750000 0.166667 -0.156714 Ba
0.750000 -0.166667 -0.156714 Ba
0.237833 0.833702 0.503129 Zn
0.250000 0.500000 0.500000 Zn
0.000000 0.666667 0.000000 Zn
0.250000 0.166667 0.500000 Zn
0.000000 0.333333 0.000000 Zn
0.000000 0.000000 0.000000 Zn
0.750000 0.833333 0.500000 Zn
0.750000 0.500000 0.500000 Zn
0.500000 0.666667 0.000000 Zn
0.750000 0.166667 0.500000 Zn
0.500000 0.333333 0.000000 Zn
0.500000 0.000000 0.000000 Zn
0.250000 0.500000 0.359634 N
-0.000000 0.666667 -0.140366 N
0.250000 0.166667 0.359634 N
-0.000000 0.333333 -0.140366 N
-0.000000 0.000000 -0.140366 N
0.750000 0.833333 0.359634 N
0.750000 0.500000 0.359634 N
0.500000 0.666667 -0.140366 N
0.750000 0.166667 0.359634 N
0.500000 0.333333 -0.140366 N
0.500000 0.000000 -0.140366 N
0.500000 0.666667 0.140366 N
0.500000 0.333333 0.140366 N
0.250000 0.500000 -0.359634 N
0.500000 -0.000000 0.140366 N
0.250000 0.166667 -0.359634 N
0.250000 -0.166667 -0.359634 N
1.000000 0.666667 0.140366 N
1.000000 0.333333 0.140366 N
0.750000 0.500000 -0.359634 N
1.000000 -0.000000 0.140366 N
0.750000 0.166667 -0.359634 N
0.750000 -0.166667 -0.359634 N
