Ba24 Zn12 N23
1.0
8.368575 0.000000 0.000000
0.000000 12.552863 0.000000
0.000000 0.000000 13.054148
Ba Zn N
24 12 23
direct
0.257332 0.823450 0.149623 Ba
0.250000 0.500000 0.156714 Ba
-0.000000 0.666667 -0.343286 Ba
0.250000 0.166667 0.156714 Ba
-0.000000 0.333333 -0.343286 Ba
-0.000000 0.000000 -0.343286 Ba
0.750000 0.833333 0.156714 Ba
0.750000 0.500000 0.156714 Ba
0.500000 0.666667 -0.343286 Ba
0.750000 0.166667 0.156714 Ba
0.500000 0.333333 -0.343286 Ba
0.500000 0.000000 -0.343286 Ba
0.503532 0.663204 0.345318 Ba
0.500000 0.333333 0.343286 Ba
0.250000 0.500000 -0.156714 Ba
0.514869 0.993611 0.350431 Ba
0.250000 0.166667 -0.156714 Ba
0.250000 -0.166667 -0.156714 Ba
0.000296 0.666778 0.342531 Ba
1.000000 0.333333 0.343286 Ba
0.750000 0.500000 -0.156714 Ba
0.998533 0.001420 0.341033 Ba
0.750000 0.166667 -0.156714 Ba
0.750000 -0.166667 -0.156714 Ba
0.251122 0.838322 0.499275 Zn
0.250000 0.500000 0.500000 Zn
0.000000 0.666667 0.000000 Zn
0.250000 0.166667 0.500000 Zn
0.000000 0.333333 0.000000 Zn
0.000000 0.000000 0.000000 Zn
0.750000 0.833333 0.500000 Zn
0.750000 0.500000 0.500000 Zn
0.500000 0.666667 0.000000 Zn
0.750000 0.166667 0.500000 Zn
0.500000 0.333333 0.000000 Zn
0.500000 0.000000 0.000000 Zn
0.250000 0.500000 0.359634 N
-0.000000 0.666667 -0.140366 N
0.250000 0.166667 0.359634 N
-0.000000 0.333333 -0.140366 N
-0.000000 0.000000 -0.140366 N
0.750000 0.833333 0.359634 N
0.750000 0.500000 0.359634 N
0.500000 0.666667 -0.140366 N
0.750000 0.166667 0.359634 N
0.500000 0.333333 -0.140366 N
0.500000 0.000000 -0.140366 N
0.500000 0.666667 0.140366 N
0.500000 0.333333 0.140366 N
0.250000 0.500000 -0.359634 N
0.500000 -0.000000 0.140366 N
0.250000 0.166667 -0.359634 N
0.250000 -0.166667 -0.359634 N
1.000000 0.666667 0.140366 N
1.000000 0.333333 0.140366 N
0.750000 0.500000 -0.359634 N
1.000000 -0.000000 0.140366 N
0.750000 0.166667 -0.359634 N
0.750000 -0.166667 -0.359634 N
