Mg9 O8                                  
   1.00000000000000     
     0.0000000000000000    4.2468930000000000    4.2468930000000000
     4.2468930000000000    0.0000000000000000    4.2468930000000000
     4.2468930000000000    4.2468930000000000    0.0000000000000000
   Mg   O 
     9     8
Direct
  0.1217689347043063  0.1270642839094265  0.1232026174152381
  0.9773594888003245  0.9835780228696507  0.9786639908985748
  0.9772326396409738  0.9833552865915252  0.5552138161143318
  0.9793656905143351  0.5590192923980055  0.9785698174211817
  0.9960090140144544  0.5024251767033263  0.4987848180173486
  0.5541171480758322  0.9810196116607344  0.9798210941729835
  0.4969138306712537  0.0010535000696734  0.4982310582554277
  0.4971355226862286  0.5023066808996006  0.9974485939101925
  0.4979550014013654  0.5015884718078425  0.4984665064320239
  0.2464944112439440  0.2531987596897451  0.2487407218640953
  0.2469777572926191  0.2522671854459446  0.7467480531147359
  0.2483262486175306  0.7503816149721985  0.2483492305860224
  0.2484910831617952  0.7521821845271575  0.7470951893279434
  0.7454800924746294  0.2517093449712746  0.2485644068597850
  0.7450488595570590  0.2534236095846580  0.7481669138920495
  0.7469348452916833  0.7510821270810695  0.2495340853641679
  0.7468984318516760  0.7508498468181628  0.7473320863539143
 
  0.00000000E+00  0.00000000E+00  0.00000000E+00
  0.00000000E+00  0.00000000E+00  0.00000000E+00
  0.00000000E+00  0.00000000E+00  0.00000000E+00
  0.00000000E+00  0.00000000E+00  0.00000000E+00
  0.00000000E+00  0.00000000E+00  0.00000000E+00
  0.00000000E+00  0.00000000E+00  0.00000000E+00
  0.00000000E+00  0.00000000E+00  0.00000000E+00
  0.00000000E+00  0.00000000E+00  0.00000000E+00
  0.00000000E+00  0.00000000E+00  0.00000000E+00
  0.00000000E+00  0.00000000E+00  0.00000000E+00
  0.00000000E+00  0.00000000E+00  0.00000000E+00
  0.00000000E+00  0.00000000E+00  0.00000000E+00
  0.00000000E+00  0.00000000E+00  0.00000000E+00
  0.00000000E+00  0.00000000E+00  0.00000000E+00
  0.00000000E+00  0.00000000E+00  0.00000000E+00
  0.00000000E+00  0.00000000E+00  0.00000000E+00
  0.00000000E+00  0.00000000E+00  0.00000000E+00
