Mg9 O8                                  
   1.00000000000000     
     0.0000000000000000    4.2468930000000000    4.2468930000000000
     4.2468930000000000    0.0000000000000000    4.2468930000000000
     4.2468930000000000    4.2468930000000000    0.0000000000000000
   Mg   O 
     9     8
Direct
  0.1218244832035538  0.1269410665057791  0.1234177318404690
  0.9772788194957940  0.9839445956815425  0.9787771255478290
  0.9767056402455125  0.9835199437736435  0.5553734064985818
  0.9799156824217192  0.5589761015806758  0.9779584515241879
  0.9962121293041619  0.5022882937085953  0.4988786439553650
  0.5542554329741165  0.9803911518194752  0.9798740195716604
  0.4964509981017855  0.0013909334790370  0.4980989064509700
  0.4971283936336235  0.5023325713015439  0.9976530768605087
  0.4981012043955388  0.5014125247752972  0.4984559779489288
  0.2461336508020793  0.2538774140193993  0.2488345807617094
  0.2470075435731118  0.2520606347866732  0.7470270556814000
  0.2483631369793997  0.7509025036184411  0.2483871351368379
  0.2484282779091771  0.7527230219459042  0.7466981165557627
  0.7453444192410785  0.2514300186055465  0.2484214410926029
  0.7450692802772139  0.2528928941387250  0.7484665073170049
  0.7473609463422477  0.7509322221511852  0.2490902923546443
  0.7469289610998828  0.7504891081085248  0.7475205309015465
 
  0.00000000E+00  0.00000000E+00  0.00000000E+00
  0.00000000E+00  0.00000000E+00  0.00000000E+00
  0.00000000E+00  0.00000000E+00  0.00000000E+00
  0.00000000E+00  0.00000000E+00  0.00000000E+00
  0.00000000E+00  0.00000000E+00  0.00000000E+00
  0.00000000E+00  0.00000000E+00  0.00000000E+00
  0.00000000E+00  0.00000000E+00  0.00000000E+00
  0.00000000E+00  0.00000000E+00  0.00000000E+00
  0.00000000E+00  0.00000000E+00  0.00000000E+00
  0.00000000E+00  0.00000000E+00  0.00000000E+00
  0.00000000E+00  0.00000000E+00  0.00000000E+00
  0.00000000E+00  0.00000000E+00  0.00000000E+00
  0.00000000E+00  0.00000000E+00  0.00000000E+00
  0.00000000E+00  0.00000000E+00  0.00000000E+00
  0.00000000E+00  0.00000000E+00  0.00000000E+00
  0.00000000E+00  0.00000000E+00  0.00000000E+00
  0.00000000E+00  0.00000000E+00  0.00000000E+00
