Mg9 O8
1.0
0.000000 4.246893 4.246893
4.246893 0.000000 4.246893
4.246893 4.246893 0.000000
Mg O
9 8
direct
0.112336 0.129007 0.138028 Mg
0.971913 0.022784 0.013775 Mg
0.978815 0.992880 0.499535 Mg
0.019610 0.495933 0.986152 Mg
0.000000 0.500000 0.500000 Mg
0.523210 0.990616 0.968714 Mg
0.500000 0.000000 0.500000 Mg
0.500000 0.500000 0.000000 Mg
0.500000 0.500000 0.500000 Mg
0.263368 0.249544 0.250908 O
0.220562 0.270931 0.751009 O
0.242114 0.767598 0.219056 O
0.250000 0.750000 0.750000 O
0.740581 0.237212 0.265756 O
0.750000 0.250000 0.750000 O
0.750000 0.750000 0.250000 O
0.750000 0.750000 0.750000 O
