Mg32 O33                                
   1.00000000000000     
     8.4194560000000003    0.0000000000000000    0.0000000000000000
     0.0000000000000000    8.4194560000000003    0.0000000000000000
     0.0000000000000000    0.0000000000000000    8.4194560000000003
   Mg   O 
    32    33
Direct
  0.9990615459255281  0.9990615459255281  0.9990615459255281
  0.9966782055561936  0.9966782055561936  0.5039804871029929
  0.9966782055561936  0.5039804871029929  0.9966782055561936
  0.0008181045883333  0.5007530863612928  0.5007530863612928
  0.5039804871029929  0.9966782055561936  0.9966782055561936
  0.5007530863612928  0.0008181045883333  0.5007530863612928
  0.5007530863612928  0.5007530863612928  0.0008181045883333
  0.4993918015145908  0.4993918015145908  0.4993918015145908
  0.9990615459255281  0.2509384540744719  0.2509384540744719
  0.9966782055561936  0.2533217944438064  0.7460195128970071
  0.9966782055561936  0.7460195128970071  0.2533217944438064
  0.0008181045883333  0.7492469136387072  0.7492469136387072
  0.5039804871029929  0.2533217944438064  0.2533217944438064
  0.5007530863612928  0.2491818954116667  0.7492469136387072
  0.5007530863612928  0.7492469136387072  0.2491818954116667
  0.4993918015145908  0.7506081984854092  0.7506081984854092
  0.2509384540744719  0.9990615459255281  0.2509384540744719
  0.2533217944438064  0.9966782055561936  0.7460195128970071
  0.2533217944438064  0.5039804871029929  0.2533217944438064
  0.2491818954116667  0.5007530863612928  0.7492469136387072
  0.7460195128970071  0.9966782055561936  0.2533217944438064
  0.7492469136387072  0.0008181045883333  0.7492469136387072
  0.7492469136387072  0.5007530863612928  0.2491818954116667
  0.7506081984854092  0.4993918015145908  0.7506081984854092
  0.2509384540744719  0.2509384540744719  0.9990615459255281
  0.2533217944438064  0.2533217944438064  0.5039804871029929
  0.2533217944438064  0.7460195128970071  0.9966782055561936
  0.2491818954116667  0.7492469136387072  0.5007530863612928
  0.7460195128970071  0.2533217944438064  0.9966782055561936
  0.7492469136387072  0.2491818954116667  0.5007530863612928
  0.7492469136387072  0.7492469136387072  0.0008181045883333
  0.7506081984854092  0.7506081984854092  0.4993918015145908
  0.1250000000000000  0.1250000000000000  0.1250000000000000
  0.2817390162666698  0.9682609837333302  0.9682609837333302
  0.2509546261084736  0.9990453738915264  0.5012499379168531
  0.2509546261084736  0.5012499379168531  0.9990453738915264
  0.2503553710904640  0.5062019775405844  0.5062019775405844
  0.7487500620831469  0.9990453738915264  0.9990453738915264
  0.7437980224594156  0.9996446289095360  0.5062019775405844
  0.7437980224594156  0.5062019775405844  0.9996446289095360
  0.7499230829895822  0.5000769170104178  0.5000769170104178
  0.2817390162666698  0.2817390162666698  0.2817390162666698
  0.2509546261084736  0.2509546261084736  0.7487500620831469
  0.2509546261084736  0.7487500620831469  0.2509546261084736
  0.2503553710904640  0.7437980224594156  0.7437980224594156
  0.7487500620831469  0.2509546261084736  0.2509546261084736
  0.7437980224594156  0.2503553710904640  0.7437980224594156
  0.7437980224594156  0.7437980224594156  0.2503553710904640
  0.7499230829895822  0.7499230829895822  0.7499230829895822
  0.9682609837333302  0.9682609837333302  0.2817390162666698
  0.9990453738915264  0.9990453738915264  0.7487500620831469
  0.9990453738915264  0.5012499379168531  0.2509546261084736
  0.9996446289095360  0.5062019775405844  0.7437980224594156
  0.5012499379168531  0.9990453738915264  0.2509546261084736
  0.5062019775405844  0.9996446289095360  0.7437980224594156
  0.5062019775405844  0.5062019775405844  0.2503553710904640
  0.5000769170104178  0.5000769170104178  0.7499230829895822
  0.9682609837333302  0.2817390162666698  0.9682609837333302
  0.9990453738915264  0.2509546261084736  0.5012499379168531
  0.9990453738915264  0.7487500620831469  0.9990453738915264
  0.9996446289095360  0.7437980224594156  0.5062019775405844
  0.5012499379168531  0.2509546261084736  0.9990453738915264
  0.5062019775405844  0.2503553710904640  0.5062019775405844
  0.5062019775405844  0.7437980224594156  0.9996446289095360
  0.5000769170104178  0.7499230829895822  0.5000769170104178
 
  0.00000000E+00  0.00000000E+00  0.00000000E+00
  0.00000000E+00  0.00000000E+00  0.00000000E+00
  0.00000000E+00  0.00000000E+00  0.00000000E+00
  0.00000000E+00  0.00000000E+00  0.00000000E+00
  0.00000000E+00  0.00000000E+00  0.00000000E+00
  0.00000000E+00  0.00000000E+00  0.00000000E+00
  0.00000000E+00  0.00000000E+00  0.00000000E+00
  0.00000000E+00  0.00000000E+00  0.00000000E+00
  0.00000000E+00  0.00000000E+00  0.00000000E+00
  0.00000000E+00  0.00000000E+00  0.00000000E+00
  0.00000000E+00  0.00000000E+00  0.00000000E+00
  0.00000000E+00  0.00000000E+00  0.00000000E+00
  0.00000000E+00  0.00000000E+00  0.00000000E+00
  0.00000000E+00  0.00000000E+00  0.00000000E+00
  0.00000000E+00  0.00000000E+00  0.00000000E+00
  0.00000000E+00  0.00000000E+00  0.00000000E+00
  0.00000000E+00  0.00000000E+00  0.00000000E+00
  0.00000000E+00  0.00000000E+00  0.00000000E+00
  0.00000000E+00  0.00000000E+00  0.00000000E+00
  0.00000000E+00  0.00000000E+00  0.00000000E+00
  0.00000000E+00  0.00000000E+00  0.00000000E+00
  0.00000000E+00  0.00000000E+00  0.00000000E+00
  0.00000000E+00  0.00000000E+00  0.00000000E+00
  0.00000000E+00  0.00000000E+00  0.00000000E+00
  0.00000000E+00  0.00000000E+00  0.00000000E+00
  0.00000000E+00  0.00000000E+00  0.00000000E+00
  0.00000000E+00  0.00000000E+00  0.00000000E+00
  0.00000000E+00  0.00000000E+00  0.00000000E+00
  0.00000000E+00  0.00000000E+00  0.00000000E+00
  0.00000000E+00  0.00000000E+00  0.00000000E+00
  0.00000000E+00  0.00000000E+00  0.00000000E+00
  0.00000000E+00  0.00000000E+00  0.00000000E+00
  0.00000000E+00  0.00000000E+00  0.00000000E+00
  0.00000000E+00  0.00000000E+00  0.00000000E+00
  0.00000000E+00  0.00000000E+00  0.00000000E+00
  0.00000000E+00  0.00000000E+00  0.00000000E+00
  0.00000000E+00  0.00000000E+00  0.00000000E+00
  0.00000000E+00  0.00000000E+00  0.00000000E+00
  0.00000000E+00  0.00000000E+00  0.00000000E+00
  0.00000000E+00  0.00000000E+00  0.00000000E+00
  0.00000000E+00  0.00000000E+00  0.00000000E+00
  0.00000000E+00  0.00000000E+00  0.00000000E+00
  0.00000000E+00  0.00000000E+00  0.00000000E+00
  0.00000000E+00  0.00000000E+00  0.00000000E+00
  0.00000000E+00  0.00000000E+00  0.00000000E+00
  0.00000000E+00  0.00000000E+00  0.00000000E+00
  0.00000000E+00  0.00000000E+00  0.00000000E+00
  0.00000000E+00  0.00000000E+00  0.00000000E+00
  0.00000000E+00  0.00000000E+00  0.00000000E+00
  0.00000000E+00  0.00000000E+00  0.00000000E+00
  0.00000000E+00  0.00000000E+00  0.00000000E+00
  0.00000000E+00  0.00000000E+00  0.00000000E+00
  0.00000000E+00  0.00000000E+00  0.00000000E+00
  0.00000000E+00  0.00000000E+00  0.00000000E+00
  0.00000000E+00  0.00000000E+00  0.00000000E+00
  0.00000000E+00  0.00000000E+00  0.00000000E+00
  0.00000000E+00  0.00000000E+00  0.00000000E+00
  0.00000000E+00  0.00000000E+00  0.00000000E+00
  0.00000000E+00  0.00000000E+00  0.00000000E+00
  0.00000000E+00  0.00000000E+00  0.00000000E+00
  0.00000000E+00  0.00000000E+00  0.00000000E+00
  0.00000000E+00  0.00000000E+00  0.00000000E+00
  0.00000000E+00  0.00000000E+00  0.00000000E+00
  0.00000000E+00  0.00000000E+00  0.00000000E+00
  0.00000000E+00  0.00000000E+00  0.00000000E+00
