Mg32 O33                                
   1.00000000000000     
     8.4194560000000003    0.0000000000000000    0.0000000000000000
     0.0000000000000000    8.4194560000000003    0.0000000000000000
     0.0000000000000000    0.0000000000000000    8.4194560000000003
   Mg   O 
    32    33
Direct
  0.9990615459273897  0.9990615459273897  0.9990615459273897
  0.9966782055497205  0.9966782055497205  0.5039804871039735
  0.9966782055497205  0.5039804871039735  0.9966782055497205
  0.0008181045879780  0.5007530863570366  0.5007530863570366
  0.5039804871039735  0.9966782055497205  0.9966782055497205
  0.5007530863570366  0.0008181045879780  0.5007530863570366
  0.5007530863570366  0.5007530863570366  0.0008181045879780
  0.4993918015207583  0.4993918015207583  0.4993918015207583
  0.9990615459273897  0.2509384540726103  0.2509384540726103
  0.9966782055497205  0.2533217944502795  0.7460195128960265
  0.9966782055497205  0.7460195128960265  0.2533217944502795
  0.0008181045879780  0.7492469136429634  0.7492469136429634
  0.5039804871039735  0.2533217944502795  0.2533217944502795
  0.5007530863570366  0.2491818954120220  0.7492469136429634
  0.5007530863570366  0.7492469136429634  0.2491818954120220
  0.4993918015207583  0.7506081984792417  0.7506081984792417
  0.2509384540726103  0.9990615459273897  0.2509384540726103
  0.2533217944502795  0.9966782055497205  0.7460195128960265
  0.2533217944502795  0.5039804871039735  0.2533217944502795
  0.2491818954120220  0.5007530863570366  0.7492469136429634
  0.7460195128960265  0.9966782055497205  0.2533217944502795
  0.7492469136429634  0.0008181045879780  0.7492469136429634
  0.7492469136429634  0.5007530863570366  0.2491818954120220
  0.7506081984792417  0.4993918015207583  0.7506081984792417
  0.2509384540726103  0.2509384540726103  0.9990615459273897
  0.2533217944502795  0.2533217944502795  0.5039804871039735
  0.2533217944502795  0.7460195128960265  0.9966782055497205
  0.2491818954120220  0.7492469136429634  0.5007530863570366
  0.7460195128960265  0.2533217944502795  0.9966782055497205
  0.7492469136429634  0.2491818954120220  0.5007530863570366
  0.7492469136429634  0.7492469136429634  0.0008181045879780
  0.7506081984792417  0.7506081984792417  0.4993918015207583
  0.1250000000000000  0.1250000000000000  0.1250000000000000
  0.2817390162747273  0.9682609837252727  0.9682609837252727
  0.2509546261058446  0.9990453738941554  0.5012499379113251
  0.2509546261058446  0.5012499379113251  0.9990453738941554
  0.2503553710914517  0.5062019775446558  0.5062019775446558
  0.7487500620886749  0.9990453738941554  0.9990453738941554
  0.7437980224553442  0.9996446289085483  0.5062019775446558
  0.7437980224553442  0.5062019775446558  0.9996446289085483
  0.7499230829935897  0.5000769170064103  0.5000769170064103
  0.2817390162747273  0.2817390162747273  0.2817390162747273
  0.2509546261058446  0.2509546261058446  0.7487500620886749
  0.2509546261058446  0.7487500620886749  0.2509546261058446
  0.2503553710914517  0.7437980224553442  0.7437980224553442
  0.7487500620886749  0.2509546261058446  0.2509546261058446
  0.7437980224553442  0.2503553710914517  0.7437980224553442
  0.7437980224553442  0.7437980224553442  0.2503553710914517
  0.7499230829935897  0.7499230829935897  0.7499230829935897
  0.9682609837252727  0.9682609837252727  0.2817390162747273
  0.9990453738941554  0.9990453738941554  0.7487500620886749
  0.9990453738941554  0.5012499379113251  0.2509546261058446
  0.9996446289085483  0.5062019775446558  0.7437980224553442
  0.5012499379113251  0.9990453738941554  0.2509546261058446
  0.5062019775446558  0.9996446289085483  0.7437980224553442
  0.5062019775446558  0.5062019775446558  0.2503553710914517
  0.5000769170064103  0.5000769170064103  0.7499230829935897
  0.9682609837252727  0.2817390162747273  0.9682609837252727
  0.9990453738941554  0.2509546261058446  0.5012499379113251
  0.9990453738941554  0.7487500620886749  0.9990453738941554
  0.9996446289085483  0.7437980224553442  0.5062019775446558
  0.5012499379113251  0.2509546261058446  0.9990453738941554
  0.5062019775446558  0.2503553710914517  0.5062019775446558
  0.5062019775446558  0.7437980224553442  0.9996446289085483
  0.5000769170064103  0.7499230829935897  0.5000769170064103
 
  0.00000000E+00  0.00000000E+00  0.00000000E+00
  0.00000000E+00  0.00000000E+00  0.00000000E+00
  0.00000000E+00  0.00000000E+00  0.00000000E+00
  0.00000000E+00  0.00000000E+00  0.00000000E+00
  0.00000000E+00  0.00000000E+00  0.00000000E+00
  0.00000000E+00  0.00000000E+00  0.00000000E+00
  0.00000000E+00  0.00000000E+00  0.00000000E+00
  0.00000000E+00  0.00000000E+00  0.00000000E+00
  0.00000000E+00  0.00000000E+00  0.00000000E+00
  0.00000000E+00  0.00000000E+00  0.00000000E+00
  0.00000000E+00  0.00000000E+00  0.00000000E+00
  0.00000000E+00  0.00000000E+00  0.00000000E+00
  0.00000000E+00  0.00000000E+00  0.00000000E+00
  0.00000000E+00  0.00000000E+00  0.00000000E+00
  0.00000000E+00  0.00000000E+00  0.00000000E+00
  0.00000000E+00  0.00000000E+00  0.00000000E+00
  0.00000000E+00  0.00000000E+00  0.00000000E+00
  0.00000000E+00  0.00000000E+00  0.00000000E+00
  0.00000000E+00  0.00000000E+00  0.00000000E+00
  0.00000000E+00  0.00000000E+00  0.00000000E+00
  0.00000000E+00  0.00000000E+00  0.00000000E+00
  0.00000000E+00  0.00000000E+00  0.00000000E+00
  0.00000000E+00  0.00000000E+00  0.00000000E+00
  0.00000000E+00  0.00000000E+00  0.00000000E+00
  0.00000000E+00  0.00000000E+00  0.00000000E+00
  0.00000000E+00  0.00000000E+00  0.00000000E+00
  0.00000000E+00  0.00000000E+00  0.00000000E+00
  0.00000000E+00  0.00000000E+00  0.00000000E+00
  0.00000000E+00  0.00000000E+00  0.00000000E+00
  0.00000000E+00  0.00000000E+00  0.00000000E+00
  0.00000000E+00  0.00000000E+00  0.00000000E+00
  0.00000000E+00  0.00000000E+00  0.00000000E+00
  0.00000000E+00  0.00000000E+00  0.00000000E+00
  0.00000000E+00  0.00000000E+00  0.00000000E+00
  0.00000000E+00  0.00000000E+00  0.00000000E+00
  0.00000000E+00  0.00000000E+00  0.00000000E+00
  0.00000000E+00  0.00000000E+00  0.00000000E+00
  0.00000000E+00  0.00000000E+00  0.00000000E+00
  0.00000000E+00  0.00000000E+00  0.00000000E+00
  0.00000000E+00  0.00000000E+00  0.00000000E+00
  0.00000000E+00  0.00000000E+00  0.00000000E+00
  0.00000000E+00  0.00000000E+00  0.00000000E+00
  0.00000000E+00  0.00000000E+00  0.00000000E+00
  0.00000000E+00  0.00000000E+00  0.00000000E+00
  0.00000000E+00  0.00000000E+00  0.00000000E+00
  0.00000000E+00  0.00000000E+00  0.00000000E+00
  0.00000000E+00  0.00000000E+00  0.00000000E+00
  0.00000000E+00  0.00000000E+00  0.00000000E+00
  0.00000000E+00  0.00000000E+00  0.00000000E+00
  0.00000000E+00  0.00000000E+00  0.00000000E+00
  0.00000000E+00  0.00000000E+00  0.00000000E+00
  0.00000000E+00  0.00000000E+00  0.00000000E+00
  0.00000000E+00  0.00000000E+00  0.00000000E+00
  0.00000000E+00  0.00000000E+00  0.00000000E+00
  0.00000000E+00  0.00000000E+00  0.00000000E+00
  0.00000000E+00  0.00000000E+00  0.00000000E+00
  0.00000000E+00  0.00000000E+00  0.00000000E+00
  0.00000000E+00  0.00000000E+00  0.00000000E+00
  0.00000000E+00  0.00000000E+00  0.00000000E+00
  0.00000000E+00  0.00000000E+00  0.00000000E+00
  0.00000000E+00  0.00000000E+00  0.00000000E+00
  0.00000000E+00  0.00000000E+00  0.00000000E+00
  0.00000000E+00  0.00000000E+00  0.00000000E+00
  0.00000000E+00  0.00000000E+00  0.00000000E+00
  0.00000000E+00  0.00000000E+00  0.00000000E+00
