k-point mesh generated by kpt_generator.py with a mesh of 0.0315
0
G
10 10 10
0 0 0
