Mg31 O31                                
   1.00000000000000     
     8.4194560000000003    0.0000000000000000    0.0000000000000000
     0.0000000000000000    8.4194560000000003    0.0000000000000000
     0.0000000000000000    0.0000000000000000    8.4194560000000003
   Mg   O 
    31    31
Direct
  0.9975669300628027  0.0000000000000000  0.5000000000000000
  0.9975669300628027  0.5000000000000000  0.0000000000000000
  0.9991636882636641  0.5000000000000000  0.5000000000000000
  0.5057797480374546  0.0000000000000000  0.0000000000000000
  0.5020827284920628  0.0000000000000000  0.5000000000000000
  0.5020827284920628  0.5000000000000000  0.0000000000000000
  0.5007928517020090  0.5000000000000000  0.5000000000000000
  0.0000510689599977  0.2433802713176263  0.2433802713176263
  0.0000510689599977  0.2433802713176263  0.7566197286823737
  0.0000510689599977  0.7566197286823737  0.2433802713176263
  0.0000510689599977  0.7566197286823737  0.7566197286823737
  0.5003924913797135  0.2485524505770300  0.2485524505770300
  0.5003924913797135  0.2485524505770300  0.7514475494229700
  0.5003924913797135  0.7514475494229700  0.2485524505770300
  0.5003924913797135  0.7514475494229700  0.7514475494229700
  0.2440620687608188  0.0000000000000000  0.2580934900635441
  0.2440620687608188  0.0000000000000000  0.7419065099364559
  0.2482244553987627  0.5000000000000000  0.2503175552357533
  0.2482244553987627  0.5000000000000000  0.7496824447642467
  0.7586583524395820  0.0000000000000000  0.2428799689115451
  0.7586583524395820  0.0000000000000000  0.7571200310884549
  0.7518055303609046  0.5000000000000000  0.2488598368130894
  0.7518055303609046  0.5000000000000000  0.7511401631869106
  0.2440620687608188  0.2580934900635441  0.0000000000000000
  0.2482244553987627  0.2503175552357533  0.5000000000000000
  0.2440620687608188  0.7419065099364559  0.0000000000000000
  0.2482244553987627  0.7496824447642467  0.5000000000000000
  0.7586583524395820  0.2428799689115451  0.0000000000000000
  0.7518055303609046  0.2488598368130894  0.5000000000000000
  0.7586583524395820  0.7571200310884549  0.0000000000000000
  0.7518055303609046  0.7511401631869106  0.5000000000000000
  0.2535937417779621  0.0000000000000000  0.5000000000000000
  0.2535937417779621  0.5000000000000000  0.0000000000000000
  0.2512953935929261  0.5000000000000000  0.5000000000000000
  0.7377343244354151  0.0000000000000000  0.0000000000000000
  0.7469041656113689  0.0000000000000000  0.5000000000000000
  0.7469041656113689  0.5000000000000000  0.0000000000000000
  0.7487325222593029  0.5000000000000000  0.5000000000000000
  0.2504168192947418  0.2481299849782985  0.2481299849782985
  0.2504168192947418  0.2481299849782985  0.7518700150217015
  0.2504168192947418  0.7518700150217015  0.2481299849782985
  0.2504168192947418  0.7518700150217015  0.7518700150217015
  0.7495721844685406  0.2496339220955122  0.2496339220955122
  0.7495721844685406  0.2496339220955122  0.7503660779044878
  0.7495721844685406  0.7503660779044878  0.2496339220955122
  0.7495721844685406  0.7503660779044878  0.7503660779044878
  0.0025845586558972  0.0000000000000000  0.2642749038457168
  0.0025845586558972  0.0000000000000000  0.7357250961542832
  0.0007774713445343  0.5000000000000000  0.2522744738273914
  0.0007774713445343  0.5000000000000000  0.7477255261726086
  0.4958059191142468  0.0000000000000000  0.2493357667595006
  0.4958059191142468  0.0000000000000000  0.7506642332404994
  0.4992006647774687  0.5000000000000000  0.2503451626575384
  0.4992006647774687  0.5000000000000000  0.7496548373424616
  0.0025845586558972  0.2642749038457168  0.0000000000000000
  0.0007774713445343  0.2522744738273914  0.5000000000000000
  0.0025845586558972  0.7357250961542832  0.0000000000000000
  0.0007774713445343  0.7477255261726086  0.5000000000000000
  0.4958059191142468  0.2493357667595006  0.0000000000000000
  0.4992006647774687  0.2503451626575384  0.5000000000000000
  0.4958059191142468  0.7506642332404994  0.0000000000000000
  0.4992006647774687  0.7496548373424616  0.5000000000000000
 
  0.00000000E+00  0.00000000E+00  0.00000000E+00
  0.00000000E+00  0.00000000E+00  0.00000000E+00
  0.00000000E+00  0.00000000E+00  0.00000000E+00
  0.00000000E+00  0.00000000E+00  0.00000000E+00
  0.00000000E+00  0.00000000E+00  0.00000000E+00
  0.00000000E+00  0.00000000E+00  0.00000000E+00
  0.00000000E+00  0.00000000E+00  0.00000000E+00
  0.00000000E+00  0.00000000E+00  0.00000000E+00
  0.00000000E+00  0.00000000E+00  0.00000000E+00
  0.00000000E+00  0.00000000E+00  0.00000000E+00
  0.00000000E+00  0.00000000E+00  0.00000000E+00
  0.00000000E+00  0.00000000E+00  0.00000000E+00
  0.00000000E+00  0.00000000E+00  0.00000000E+00
  0.00000000E+00  0.00000000E+00  0.00000000E+00
  0.00000000E+00  0.00000000E+00  0.00000000E+00
  0.00000000E+00  0.00000000E+00  0.00000000E+00
  0.00000000E+00  0.00000000E+00  0.00000000E+00
  0.00000000E+00  0.00000000E+00  0.00000000E+00
  0.00000000E+00  0.00000000E+00  0.00000000E+00
  0.00000000E+00  0.00000000E+00  0.00000000E+00
  0.00000000E+00  0.00000000E+00  0.00000000E+00
  0.00000000E+00  0.00000000E+00  0.00000000E+00
  0.00000000E+00  0.00000000E+00  0.00000000E+00
  0.00000000E+00  0.00000000E+00  0.00000000E+00
  0.00000000E+00  0.00000000E+00  0.00000000E+00
  0.00000000E+00  0.00000000E+00  0.00000000E+00
  0.00000000E+00  0.00000000E+00  0.00000000E+00
  0.00000000E+00  0.00000000E+00  0.00000000E+00
  0.00000000E+00  0.00000000E+00  0.00000000E+00
  0.00000000E+00  0.00000000E+00  0.00000000E+00
  0.00000000E+00  0.00000000E+00  0.00000000E+00
  0.00000000E+00  0.00000000E+00  0.00000000E+00
  0.00000000E+00  0.00000000E+00  0.00000000E+00
  0.00000000E+00  0.00000000E+00  0.00000000E+00
  0.00000000E+00  0.00000000E+00  0.00000000E+00
  0.00000000E+00  0.00000000E+00  0.00000000E+00
  0.00000000E+00  0.00000000E+00  0.00000000E+00
  0.00000000E+00  0.00000000E+00  0.00000000E+00
  0.00000000E+00  0.00000000E+00  0.00000000E+00
  0.00000000E+00  0.00000000E+00  0.00000000E+00
  0.00000000E+00  0.00000000E+00  0.00000000E+00
  0.00000000E+00  0.00000000E+00  0.00000000E+00
  0.00000000E+00  0.00000000E+00  0.00000000E+00
  0.00000000E+00  0.00000000E+00  0.00000000E+00
  0.00000000E+00  0.00000000E+00  0.00000000E+00
  0.00000000E+00  0.00000000E+00  0.00000000E+00
  0.00000000E+00  0.00000000E+00  0.00000000E+00
  0.00000000E+00  0.00000000E+00  0.00000000E+00
  0.00000000E+00  0.00000000E+00  0.00000000E+00
  0.00000000E+00  0.00000000E+00  0.00000000E+00
  0.00000000E+00  0.00000000E+00  0.00000000E+00
  0.00000000E+00  0.00000000E+00  0.00000000E+00
  0.00000000E+00  0.00000000E+00  0.00000000E+00
  0.00000000E+00  0.00000000E+00  0.00000000E+00
  0.00000000E+00  0.00000000E+00  0.00000000E+00
  0.00000000E+00  0.00000000E+00  0.00000000E+00
  0.00000000E+00  0.00000000E+00  0.00000000E+00
  0.00000000E+00  0.00000000E+00  0.00000000E+00
  0.00000000E+00  0.00000000E+00  0.00000000E+00
  0.00000000E+00  0.00000000E+00  0.00000000E+00
  0.00000000E+00  0.00000000E+00  0.00000000E+00
  0.00000000E+00  0.00000000E+00  0.00000000E+00
