Mg31 O31                                
   1.00000000000000     
     8.4194560000000003    0.0000000000000000    0.0000000000000000
     0.0000000000000000    8.4194560000000003    0.0000000000000000
     0.0000000000000000    0.0000000000000000    8.4194560000000003
   Mg   O 
    31    31
Direct
  0.9975669300440018  0.0000000000000000  0.5000000000000000
  0.9975669300440018  0.5000000000000000  0.0000000000000000
  0.9991636882553649  0.5000000000000000  0.5000000000000000
  0.5057797480337243  0.0000000000000000  0.0000000000000000
  0.5020827285011862  0.0000000000000000  0.5000000000000000
  0.5020827285011862  0.5000000000000000  0.0000000000000000
  0.5007928517163194  0.5000000000000000  0.5000000000000000
  0.0000510689676005  0.2433802713200492  0.2433802713200492
  0.0000510689676005  0.2433802713200492  0.7566197286799508
  0.0000510689676005  0.7566197286799508  0.2433802713200492
  0.0000510689676005  0.7566197286799508  0.7566197286799508
  0.5003924913792943  0.2485524505645031  0.2485524505645031
  0.5003924913792943  0.2485524505645031  0.7514475494354969
  0.5003924913792943  0.7514475494354969  0.2485524505645031
  0.5003924913792943  0.7514475494354969  0.7514475494354969
  0.2440620687619202  0.0000000000000000  0.2580934900858907
  0.2440620687619202  0.0000000000000000  0.7419065099141093
  0.2482244553910746  0.5000000000000000  0.2503175552390431
  0.2482244553910746  0.5000000000000000  0.7496824447609569
  0.7586583524396673  0.0000000000000000  0.2428799689071184
  0.7586583524396673  0.0000000000000000  0.7571200310928816
  0.7518055303699001  0.5000000000000000  0.2488598368101549
  0.7518055303699001  0.5000000000000000  0.7511401631898451
  0.2440620687619202  0.2580934900858907  0.0000000000000000
  0.2482244553910746  0.2503175552390431  0.5000000000000000
  0.2440620687619202  0.7419065099141093  0.0000000000000000
  0.2482244553910746  0.7496824447609569  0.5000000000000000
  0.7586583524396673  0.2428799689071184  0.0000000000000000
  0.7518055303699001  0.2488598368101549  0.5000000000000000
  0.7586583524396673  0.7571200310928816  0.0000000000000000
  0.7518055303699001  0.7511401631898451  0.5000000000000000
  0.2535937417923719  0.0000000000000000  0.5000000000000000
  0.2535937417923719  0.5000000000000000  0.0000000000000000
  0.2512953935986388  0.5000000000000000  0.5000000000000000
  0.7377343244450145  0.0000000000000000  0.0000000000000000
  0.7469041655914950  0.0000000000000000  0.5000000000000000
  0.7469041655914950  0.5000000000000000  0.0000000000000000
  0.7487325222784733  0.5000000000000000  0.5000000000000000
  0.2504168192861016  0.2481299849792649  0.2481299849792649
  0.2504168192861016  0.2481299849792649  0.7518700150207351
  0.2504168192861016  0.7518700150207351  0.2481299849792649
  0.2504168192861016  0.7518700150207351  0.7518700150207351
  0.7495721844836467  0.2496339220813226  0.2496339220813226
  0.7495721844836467  0.2496339220813226  0.7503660779186774
  0.7495721844836467  0.7503660779186774  0.2496339220813226
  0.7495721844836467  0.7503660779186774  0.7503660779186774
  0.0025845586385245  0.0000000000000000  0.2642749038495253
  0.0025845586385245  0.0000000000000000  0.7357250961504747
  0.0007774713527269  0.5000000000000000  0.2522744738306457
  0.0007774713527269  0.5000000000000000  0.7477255261693543
  0.4958059190995030  0.0000000000000000  0.2493357667616465
  0.4958059190995030  0.0000000000000000  0.7506642332383535
  0.4992006647836362  0.5000000000000000  0.2503451626556839
  0.4992006647836362  0.5000000000000000  0.7496548373443161
  0.0025845586385245  0.2642749038495253  0.0000000000000000
  0.0007774713527269  0.2522744738306457  0.5000000000000000
  0.0025845586385245  0.7357250961504747  0.0000000000000000
  0.0007774713527269  0.7477255261693543  0.5000000000000000
  0.4958059190995030  0.2493357667616465  0.0000000000000000
  0.4992006647836362  0.2503451626556839  0.5000000000000000
  0.4958059190995030  0.7506642332383535  0.0000000000000000
  0.4992006647836362  0.7496548373443161  0.5000000000000000
 
  0.00000000E+00  0.00000000E+00  0.00000000E+00
  0.00000000E+00  0.00000000E+00  0.00000000E+00
  0.00000000E+00  0.00000000E+00  0.00000000E+00
  0.00000000E+00  0.00000000E+00  0.00000000E+00
  0.00000000E+00  0.00000000E+00  0.00000000E+00
  0.00000000E+00  0.00000000E+00  0.00000000E+00
  0.00000000E+00  0.00000000E+00  0.00000000E+00
  0.00000000E+00  0.00000000E+00  0.00000000E+00
  0.00000000E+00  0.00000000E+00  0.00000000E+00
  0.00000000E+00  0.00000000E+00  0.00000000E+00
  0.00000000E+00  0.00000000E+00  0.00000000E+00
  0.00000000E+00  0.00000000E+00  0.00000000E+00
  0.00000000E+00  0.00000000E+00  0.00000000E+00
  0.00000000E+00  0.00000000E+00  0.00000000E+00
  0.00000000E+00  0.00000000E+00  0.00000000E+00
  0.00000000E+00  0.00000000E+00  0.00000000E+00
  0.00000000E+00  0.00000000E+00  0.00000000E+00
  0.00000000E+00  0.00000000E+00  0.00000000E+00
  0.00000000E+00  0.00000000E+00  0.00000000E+00
  0.00000000E+00  0.00000000E+00  0.00000000E+00
  0.00000000E+00  0.00000000E+00  0.00000000E+00
  0.00000000E+00  0.00000000E+00  0.00000000E+00
  0.00000000E+00  0.00000000E+00  0.00000000E+00
  0.00000000E+00  0.00000000E+00  0.00000000E+00
  0.00000000E+00  0.00000000E+00  0.00000000E+00
  0.00000000E+00  0.00000000E+00  0.00000000E+00
  0.00000000E+00  0.00000000E+00  0.00000000E+00
  0.00000000E+00  0.00000000E+00  0.00000000E+00
  0.00000000E+00  0.00000000E+00  0.00000000E+00
  0.00000000E+00  0.00000000E+00  0.00000000E+00
  0.00000000E+00  0.00000000E+00  0.00000000E+00
  0.00000000E+00  0.00000000E+00  0.00000000E+00
  0.00000000E+00  0.00000000E+00  0.00000000E+00
  0.00000000E+00  0.00000000E+00  0.00000000E+00
  0.00000000E+00  0.00000000E+00  0.00000000E+00
  0.00000000E+00  0.00000000E+00  0.00000000E+00
  0.00000000E+00  0.00000000E+00  0.00000000E+00
  0.00000000E+00  0.00000000E+00  0.00000000E+00
  0.00000000E+00  0.00000000E+00  0.00000000E+00
  0.00000000E+00  0.00000000E+00  0.00000000E+00
  0.00000000E+00  0.00000000E+00  0.00000000E+00
  0.00000000E+00  0.00000000E+00  0.00000000E+00
  0.00000000E+00  0.00000000E+00  0.00000000E+00
  0.00000000E+00  0.00000000E+00  0.00000000E+00
  0.00000000E+00  0.00000000E+00  0.00000000E+00
  0.00000000E+00  0.00000000E+00  0.00000000E+00
  0.00000000E+00  0.00000000E+00  0.00000000E+00
  0.00000000E+00  0.00000000E+00  0.00000000E+00
  0.00000000E+00  0.00000000E+00  0.00000000E+00
  0.00000000E+00  0.00000000E+00  0.00000000E+00
  0.00000000E+00  0.00000000E+00  0.00000000E+00
  0.00000000E+00  0.00000000E+00  0.00000000E+00
  0.00000000E+00  0.00000000E+00  0.00000000E+00
  0.00000000E+00  0.00000000E+00  0.00000000E+00
  0.00000000E+00  0.00000000E+00  0.00000000E+00
  0.00000000E+00  0.00000000E+00  0.00000000E+00
  0.00000000E+00  0.00000000E+00  0.00000000E+00
  0.00000000E+00  0.00000000E+00  0.00000000E+00
  0.00000000E+00  0.00000000E+00  0.00000000E+00
  0.00000000E+00  0.00000000E+00  0.00000000E+00
  0.00000000E+00  0.00000000E+00  0.00000000E+00
  0.00000000E+00  0.00000000E+00  0.00000000E+00
