Mg O                                    
   1.00000000000000     
     8.4937860392504003    0.0000000000000000    0.0000000000000000
     0.0000000000000000    8.4937860392504003    0.0000000000000000
     0.0000000000000000    0.0000000000000000    8.4937860392504003
   Mg   O 
    32    31
Direct
 -0.0002054151749860 -0.0002054151749860 -0.0002054151749860
 -0.0002054151749860 -0.0002054151749860  0.5002054151749861
 -0.0002054151749860  0.5002054151749861 -0.0002054151749860
 -0.0002054151749860  0.5002054151749861  0.5002054151749861
  0.5002054151749861 -0.0002054151749860 -0.0002054151749860
  0.5002054151749861 -0.0002054151749860  0.5002054151749861
  0.5002054151749861  0.5002054151749861 -0.0002054151749860
  0.5002054151749861  0.5002054151749861  0.5002054151749861
 -0.0199884415119444  0.2500000000000000  0.2500000000000000
 -0.0023072550441495  0.2500000000000000  0.7499999999999929
 -0.0023072550441495  0.7499999999999929  0.2500000000000000
 -0.0009389951716748  0.7499999999999929  0.7499999999999929
  0.5199884415119443  0.2500000000000000  0.2500000000000000
  0.5023072550441495  0.2500000000000000  0.7499999999999929
  0.5023072550441495  0.7499999999999929  0.2500000000000000
  0.5009389951716748  0.7499999999999929  0.7499999999999929
  0.2500000000000000 -0.0199884415119444  0.2500000000000000
  0.2500000000000000 -0.0023072550441495  0.7499999999999929
  0.2500000000000000  0.5199884415119443  0.2500000000000000
  0.2500000000000000  0.5023072550441495  0.7499999999999929
  0.7499999999999929 -0.0023072550441495  0.2500000000000000
  0.7499999999999929 -0.0009389951716748  0.7499999999999929
  0.7499999999999929  0.5023072550441495  0.2500000000000000
  0.7499999999999929  0.5009389951716748  0.7499999999999929
  0.2500000000000000  0.2500000000000000 -0.0199884415119445
  0.2500000000000000  0.2500000000000000  0.5199884415119443
  0.2500000000000000  0.7499999999999929 -0.0023072550441495
  0.2500000000000000  0.7499999999999929  0.5023072550441495
  0.7499999999999929  0.2500000000000000 -0.0023072550441495
  0.7499999999999929  0.2500000000000000  0.5023072550441495
  0.7499999999999929  0.7499999999999929 -0.0009389951716748
  0.7499999999999929  0.7499999999999929  0.5009389951716748
  0.2500000000000000  0.2500000000000000  0.7499999999999929
  0.2500000000000000  0.7499999999999929  0.2500000000000000
  0.2500000000000000  0.7499999999999929  0.7499999999999929
  0.7499999999999929  0.2500000000000000  0.2500000000000000
  0.7499999999999929  0.2500000000000000  0.7499999999999929
  0.7499999999999929  0.7499999999999929  0.2500000000000000
  0.7499999999999929  0.7499999999999929  0.7499999999999929
  0.2500000000000000  0.0059767682311674  0.0059767682311674
  0.2500000000000000  0.0059767682311674  0.4940232317688326
  0.2500000000000000  0.4940232317688326  0.0059767682311674
  0.2500000000000000  0.4940232317688326  0.4940232317688326
  0.7499999999999929  0.0014387668731656  0.0014387668731656
  0.7499999999999929  0.0014387668731656  0.4985612331268343
  0.7499999999999929  0.4985612331268343  0.0014387668731656
  0.7499999999999929  0.4985612331268343  0.4985612331268343
  0.0059767682311674  0.2500000000000000  0.0059767682311674
  0.0059767682311674  0.2500000000000000  0.4940232317688326
  0.0014387668731656  0.7499999999999929  0.0014387668731656
  0.0014387668731656  0.7499999999999929  0.4985612331268343
  0.4940232317688326  0.2500000000000000  0.0059767682311674
  0.4940232317688326  0.2500000000000000  0.4940232317688326
  0.4985612331268343  0.7499999999999929  0.0014387668731656
  0.4985612331268343  0.7499999999999929  0.4985612331268343
  0.0059767682311674  0.0059767682311674  0.2500000000000000
  0.0014387668731656  0.0014387668731656  0.7499999999999929
  0.0059767682311674  0.4940232317688326  0.2500000000000000
  0.0014387668731656  0.4985612331268343  0.7499999999999929
  0.4940232317688326  0.0059767682311674  0.2500000000000000
  0.4985612331268343  0.0014387668731656  0.7499999999999929
  0.4940232317688326  0.4940232317688326  0.2500000000000000
  0.4985612331268343  0.4985612331268343  0.7499999999999929
 
  0.00000000E+00  0.00000000E+00  0.00000000E+00
  0.00000000E+00  0.00000000E+00  0.00000000E+00
  0.00000000E+00  0.00000000E+00  0.00000000E+00
  0.00000000E+00  0.00000000E+00  0.00000000E+00
  0.00000000E+00  0.00000000E+00  0.00000000E+00
  0.00000000E+00  0.00000000E+00  0.00000000E+00
  0.00000000E+00  0.00000000E+00  0.00000000E+00
  0.00000000E+00  0.00000000E+00  0.00000000E+00
  0.00000000E+00  0.00000000E+00  0.00000000E+00
  0.00000000E+00  0.00000000E+00  0.00000000E+00
  0.00000000E+00  0.00000000E+00  0.00000000E+00
  0.00000000E+00  0.00000000E+00  0.00000000E+00
  0.00000000E+00  0.00000000E+00  0.00000000E+00
  0.00000000E+00  0.00000000E+00  0.00000000E+00
  0.00000000E+00  0.00000000E+00  0.00000000E+00
  0.00000000E+00  0.00000000E+00  0.00000000E+00
  0.00000000E+00  0.00000000E+00  0.00000000E+00
  0.00000000E+00  0.00000000E+00  0.00000000E+00
  0.00000000E+00  0.00000000E+00  0.00000000E+00
  0.00000000E+00  0.00000000E+00  0.00000000E+00
  0.00000000E+00  0.00000000E+00  0.00000000E+00
  0.00000000E+00  0.00000000E+00  0.00000000E+00
  0.00000000E+00  0.00000000E+00  0.00000000E+00
  0.00000000E+00  0.00000000E+00  0.00000000E+00
  0.00000000E+00  0.00000000E+00  0.00000000E+00
  0.00000000E+00  0.00000000E+00  0.00000000E+00
  0.00000000E+00  0.00000000E+00  0.00000000E+00
  0.00000000E+00  0.00000000E+00  0.00000000E+00
  0.00000000E+00  0.00000000E+00  0.00000000E+00
  0.00000000E+00  0.00000000E+00  0.00000000E+00
  0.00000000E+00  0.00000000E+00  0.00000000E+00
  0.00000000E+00  0.00000000E+00  0.00000000E+00
  0.00000000E+00  0.00000000E+00  0.00000000E+00
  0.00000000E+00  0.00000000E+00  0.00000000E+00
  0.00000000E+00  0.00000000E+00  0.00000000E+00
  0.00000000E+00  0.00000000E+00  0.00000000E+00
  0.00000000E+00  0.00000000E+00  0.00000000E+00
  0.00000000E+00  0.00000000E+00  0.00000000E+00
  0.00000000E+00  0.00000000E+00  0.00000000E+00
  0.00000000E+00  0.00000000E+00  0.00000000E+00
  0.00000000E+00  0.00000000E+00  0.00000000E+00
  0.00000000E+00  0.00000000E+00  0.00000000E+00
  0.00000000E+00  0.00000000E+00  0.00000000E+00
  0.00000000E+00  0.00000000E+00  0.00000000E+00
  0.00000000E+00  0.00000000E+00  0.00000000E+00
  0.00000000E+00  0.00000000E+00  0.00000000E+00
  0.00000000E+00  0.00000000E+00  0.00000000E+00
  0.00000000E+00  0.00000000E+00  0.00000000E+00
  0.00000000E+00  0.00000000E+00  0.00000000E+00
  0.00000000E+00  0.00000000E+00  0.00000000E+00
  0.00000000E+00  0.00000000E+00  0.00000000E+00
  0.00000000E+00  0.00000000E+00  0.00000000E+00
  0.00000000E+00  0.00000000E+00  0.00000000E+00
  0.00000000E+00  0.00000000E+00  0.00000000E+00
  0.00000000E+00  0.00000000E+00  0.00000000E+00
  0.00000000E+00  0.00000000E+00  0.00000000E+00
  0.00000000E+00  0.00000000E+00  0.00000000E+00
  0.00000000E+00  0.00000000E+00  0.00000000E+00
  0.00000000E+00  0.00000000E+00  0.00000000E+00
  0.00000000E+00  0.00000000E+00  0.00000000E+00
  0.00000000E+00  0.00000000E+00  0.00000000E+00
  0.00000000E+00  0.00000000E+00  0.00000000E+00
  0.00000000E+00  0.00000000E+00  0.00000000E+00
