Mg32 O31
1.0
8.419456 0.000000 0.000000
0.000000 8.419456 0.000000
0.000000 0.000000 8.419456
Mg O
32 31
direct
0.999018 0.999743 0.998368 Mg  Disp
0.000000 0.000000 0.500000 Mg
0.000000 0.500000 0.000000 Mg
0.000000 0.500000 0.500000 Mg
0.505558 0.000998 0.003225 Mg  Disp
0.500000 0.000000 0.500000 Mg
0.500000 0.500000 0.000000 Mg
0.500000 0.500000 0.500000 Mg
0.000000 0.250000 0.250000 Mg
0.000000 0.250000 0.750000 Mg
0.000000 0.750000 0.250000 Mg
0.000000 0.750000 0.750000 Mg
0.500000 0.250000 0.250000 Mg
0.500000 0.250000 0.750000 Mg
0.500000 0.750000 0.250000 Mg
0.500000 0.750000 0.750000 Mg
0.263737 0.001961 0.242718 Mg  Disp
0.248387 0.001393 0.754061 Mg  Disp
0.250000 0.500000 0.250000 Mg
0.250000 0.500000 0.750000 Mg
0.750000 0.000000 0.250000 Mg
0.750000 0.000000 0.750000 Mg
0.750000 0.500000 0.250000 Mg
0.750000 0.500000 0.750000 Mg
0.247076 0.249793 0.005434 Mg  Disp
0.250000 0.250000 0.500000 Mg
0.252265 0.756668 0.996755 Mg  Disp
0.250000 0.750000 0.500000 Mg
0.750000 0.250000 0.000000 Mg
0.750000 0.250000 0.500000 Mg
0.750000 0.750000 0.000000 Mg
0.750000 0.750000 0.500000 Mg
0.250000 0.000000 0.500000 O
0.250000 0.500000 0.000000 O
0.250000 0.500000 0.500000 O
0.750000 0.000000 0.000000 O
0.750000 0.000000 0.500000 O
0.750000 0.500000 0.000000 O
0.750000 0.500000 0.500000 O
0.250000 0.250000 0.250000 O
0.250000 0.250000 0.750000 O
0.250000 0.750000 0.250000 O
0.250000 0.750000 0.750000 O
0.750000 0.250000 0.250000 O
0.750000 0.250000 0.750000 O
0.750000 0.750000 0.250000 O
0.750000 0.750000 0.750000 O
0.000000 0.000000 0.250000 O
0.000000 0.000000 0.750000 O
0.000000 0.500000 0.250000 O
0.000000 0.500000 0.750000 O
0.500000 0.000000 0.250000 O
0.500000 0.000000 0.750000 O
0.500000 0.500000 0.250000 O
0.500000 0.500000 0.750000 O
0.000000 0.250000 0.000000 O
0.000000 0.250000 0.500000 O
0.000000 0.750000 0.000000 O
0.000000 0.750000 0.500000 O
0.500000 0.250000 0.000000 O
0.500000 0.250000 0.500000 O
0.500000 0.750000 0.000000 O
0.500000 0.750000 0.500000 O
