Zn24 P16
1.0
8.120691 0.000000 0.000000
0.000000 8.120691 0.000000
0.000000 0.000000 11.466590
Zn P
24 16
direct
0.500000 0.717082 0.606249 Zn
0.782918 0.000000 0.106249 Zn
0.217082 0.000000 0.106249 Zn
0.000000 0.782918 0.893751 Zn
0.000000 0.217082 0.893751 Zn
0.500000 0.282918 0.606249 Zn
0.717082 0.500000 0.393751 Zn
0.282918 0.500000 0.393751 Zn
0.500000 0.783043 0.885170 Zn
0.716957 0.000000 0.385170 Zn
0.283043 0.000000 0.385170 Zn
0.000000 0.716957 0.614830 Zn
0.000000 0.283043 0.614830 Zn
0.500000 0.216957 0.885170 Zn
0.783043 0.500000 0.114830 Zn
0.216957 0.500000 0.114830 Zn
0.500000 0.746795 0.148155 Zn
0.753205 0.000000 0.648155 Zn
0.246795 0.000000 0.648155 Zn
0.000000 0.753205 0.351845 Zn
0.000000 0.246795 0.351845 Zn
0.500000 0.253205 0.148155 Zn
0.746795 0.500000 0.851845 Zn
0.253205 0.500000 0.851845 Zn
0.500000 0.500000 0.746106 P
0.000000 0.000000 0.246106 P
0.000000 0.000000 0.753894 P
0.500000 0.500000 0.253894 P
0.500000 0.000000 0.745801 P
0.500000 0.000000 0.245801 P
0.000000 0.500000 0.754199 P
0.000000 0.500000 0.254199 P
0.754391 0.754391 0.500000 P
0.745609 0.254391 0.000000 P
0.254391 0.745609 0.000000 P
0.245609 0.245609 0.500000 P
0.745609 0.745609 0.000000 P
0.754391 0.245609 0.500000 P
0.245609 0.754391 0.500000 P
0.254391 0.254391 0.000000 P
