K1 Zn4 P3
1.0
1.983363 1.145095 11.216710
-1.983363 1.145095 11.216710
0.000000 -2.290191 11.216710
K Zn P
1 4 3
direct
0.500000 0.500000 0.500000 K
0.303869 0.303869 0.303869 Zn
0.696131 0.696131 0.696131 Zn
0.083789 0.083789 0.083789 Zn
0.916211 0.916211 0.916211 Zn
0.235211 0.235211 0.235211 P
0.764789 0.764789 0.764789 P
0.000000 0.000000 0.000000 P