CIF file-3x3x3                          
   1.00000000000000     
    20.9916339332933006    0.0039831934338300    0.0000002111415900
     7.0241992259582098   19.7815402910601286    0.0000002111427300
   -14.0078969087357095   -9.8927478500304105   12.1062411399679508
   Zn   Sn   P 
    54    53   108
Direct
  0.1649847671700329  0.1649851104824407  0.0000040766203711
  0.4998555836736855  0.1666834651670968  0.9998748530551183
  0.8356009201995818  0.1561073153782147  0.9975422968016616
  0.1668149431086263  0.4999875394391537  0.0001375650452999
  0.4999992214969780  0.4999994073221359  0.9999988253013470
  0.8340299803140354  0.4991533622081050  0.0002539623150426
  0.1585652914421161  0.8380572982804324  0.0024585330540745
  0.4988978494432388  0.8337753208428467  0.9997446394273979
  0.8350150249309465  0.8350164120730028  0.0000000322341407
  0.1619435336064399  0.1644012518527447  0.3205079787213307
  0.4995461814733417  0.1672765198139388  0.3337568356185940
  0.8327248568130301  0.1664784600738543  0.3322705183994259
  0.1669273813011927  0.4985402916510893  0.3329728364185414
  0.5008433712662139  0.5010981810779640  0.3348737562030593
  0.8338052776926332  0.5001370627787622  0.3338587605222187
  0.1660456437131757  0.8330763979757592  0.3316151047436620
  0.4998630034281888  0.8337204717785625  0.3336690129514679
  0.8333203043047845  0.8331864891819052  0.3331739955639321
  0.1662278146550804  0.1659720013686297  0.6651252186668017
  0.5000538860386001  0.1661931174137834  0.6663304556888079
  0.8335242574041857  0.1657880874474600  0.6662471248855439
  0.1662774773344324  0.4999502892905880  0.6661405218220935
  0.5000189436825053  0.5001527948696989  0.6668319412456967
  0.8342114719300540  0.5004577246036490  0.6677338191019189
  0.1655710342536167  0.8339562992654308  0.6670322147073549
  0.5014591517230969  0.8344277702104108  0.6683833806672510
  0.8438909153266110  0.8414323918568059  0.6794893471824892
  0.0869502415087524  0.2400156613142954  0.1675882541890061
  0.4162709475193296  0.2501561392102474  0.1671008326722330
  0.7503820704090387  0.2485370308767898  0.1658033135286914
  0.0836263268073409  0.5825678193956563  0.1665149948557030
  0.4170299429843567  0.5838801210292885  0.1672976503247483
  0.7502656925507196  0.5829693131427547  0.1668492596900677
  0.0806353420289838  0.9130513339144599  0.1530657458247333
  0.4141674069224592  0.9176201496632217  0.1662564885730262
  0.7498440570956575  0.9169418522751940  0.1661151093568520
  0.0823863128383380  0.2486411779150970  0.4965535163797838
  0.4154255380729737  0.2496245640695633  0.4981575794643476
  0.7500004632111299  0.2500025051292099  0.5000021131930481
  0.0830865551061351  0.5830869384857280  0.4999992678531200
  0.4174342959829289  0.5839487647494224  0.5010601633907257
  0.7520848367732640  0.5858313380418352  0.5034501547613388
  0.0828900999233184  0.9163783689121558  0.4989461483872475
  0.4169149260418408  0.9169134664085874  0.5000006660033307
  0.7514596449582456  0.9172619959533748  0.5018376683507881
  0.0830612414394665  0.2491740683505981  0.8329070165350956
  0.4165864130877850  0.2497330542015490  0.8327050868988408
  0.7513635152806799  0.2479117132703621  0.8337450969534146
  0.0827297363031363  0.5845751081307426  0.8341946792269610
  0.4161189662301155  0.5834160406222111  0.8331484647147676
  0.7508287690761151  0.5837310579127788  0.8338858092473060
  0.0724287612272789  0.9193628294509679  0.8324134172227673
  0.4160552894256639  0.9171092069666287  0.8334858581745763
  0.7599830351680339  0.9275707464650935  0.8469330971636992
  0.3302860811832034  0.0008584124004898  0.0004866228286105
  0.6677112132782099  0.0014572910298654  0.0008750828651145
  0.0003709004903882  0.3297989880178491  0.9995126100185630
  0.3332719060018832  0.3332717361899569  0.9999989161752154
  0.6672915240537947  0.3320988604198618  0.0001889449894961
  0.0005822044590857  0.6668376377031748  0.9991267266470629
  0.3319076494380724  0.6671024620659836  0.9998094670053632
  0.6667279553216332  0.6667282159856356  0.0000007252368803
  0.9991416989197219  0.9996298254440319  0.3294285707743683
  0.3310828618007662  0.9999339083374892  0.3305839760380138
  0.6662604537240853  0.9998582054907246  0.3332464379292404
  0.0000662463894159  0.3306491460132150  0.3311480059370098
  0.3331635046451709  0.3322903479877652  0.3337465422369235
  0.6669859471300441  0.3337397080798254  0.3335976265649165
  0.0000053745531403  0.6662073955455909  0.3333779135837673
  0.3337924732524016  0.6671716623279451  0.3337983669554063
  0.6678995721004881  0.6680892679557502  0.3351906299301461
  0.9985436977267099  0.9994187355163220  0.6662550448744184
  0.3333732167380603  0.9999946773140849  0.6662016380350408
  0.6693508948518883  0.0004983704895167  0.6694159573119336
  0.0001436747085748  0.3333878782081712  0.6664035032201809
  0.3328989235996431  0.3327075430686577  0.6648073393696876
  0.6666128100979520  0.3330152513273532  0.6667557559180537
  0.9994995014449515  0.6689163400620117  0.6688501698239975
  0.3328287630749927  0.6666276895129712  0.6666224310181903
  0.6701998939111249  0.6697124469522819  0.6705701276320823
  0.2408992854055612  0.0869579203068085  0.1677088853399908
  0.5826268822184630  0.0834513225950744  0.1662743120363501
  0.9130420033950344  0.0807514206870152  0.1539418341538976
  0.2499474613169141  0.4160616187410398  0.1669654734362211
  0.5837816890059599  0.4171930906174524  0.1672365797329718
  0.9175371218765207  0.4139334254296543  0.1665410545178432
  0.2489619301790214  0.7504560542117176  0.1657865587244629
  0.5828051005989394  0.7500432233707386  0.1665867071094667
  0.9170183074882985  0.7500529490439476  0.1661155006112836
  0.2490042232360778  0.0824623255871941  0.4963957162572825
  0.5829798776886435  0.0829796059010448  0.5000002344834868
  0.9165484439306297  0.0828231466926823  0.4991755530334103
  0.2495441711539357  0.4153319200302121  0.4985068629385196
  0.5836474769375641  0.4173732144006834  0.5008253514444974
  0.9170209746612485  0.4170192788738021  0.4999995681264124
  0.2499997558944926  0.7499999927965888  0.4999998312393572
  0.5860662809251167  0.7526065297266413  0.5036021325999087
  0.9168252386579780  0.7510371900513775  0.5014927551361055
  0.2490972709031780  0.0829821624723763  0.8330352132508949
  0.5846686391901983  0.0831751748636478  0.8342132923219481
  0.9192484255094584  0.0731884783891275  0.8322883453924774
  0.2499571002518977  0.4165454538481015  0.8327630269537920
  0.5834552892814813  0.4162183795716814  0.8334113353100250
  0.9171775058148057  0.4163520384544341  0.8337255654189875
  0.2473910570553954  0.7509956383383951  0.8334575165198501
  0.5839386641269755  0.7509041300376467  0.8338860468673346
  0.9268096857190287  0.7591011483304939  0.8460587571667944
  0.2911203122955257  0.2837012279406750  0.1592666160359428
  0.6250331854731854  0.2845795786347907  0.1593229681198522
  0.9583945432925987  0.2813847509354019  0.1573617098145803
  0.2917027677797535  0.6181217516128967  0.1595614123027076
  0.6249891747955090  0.6177457855321578  0.1594575188413501
  0.9585214298686395  0.6178506450741565  0.1596238816770850
  0.2897013721215274  0.9521529655188345  0.1579703180161403
  0.6247322394962609  0.9510845674612511  0.1592325546072644
  0.9594380266273390  0.9524256773937481  0.1583084966524169
  0.2897363937963178  0.2824725591909001  0.4897733583465822
  0.6253707539828071  0.2847758776419838  0.4932478168561047
  0.9583082387244986  0.2843358458601486  0.4924329169861821
  0.2916231213058254  0.6175605197826926  0.4926391411451974
  0.6254842172707171  0.6186853382743607  0.4937475884506739
  0.9585097135583780  0.6182951081438333  0.4937235443935322
  0.2914003520963746  0.9511511893635429  0.4922556109720375
  0.6253158235295331  0.9510545493730618  0.4932932466602011
  0.9584611165020007  0.9510262564517120  0.4928614066614756
  0.2915053098493203  0.2841960005721944  0.8257791235283705
  0.6255645793463884  0.2841129178132888  0.8263719700990535
  0.9582939701196338  0.2841936292521154  0.8263551887286837
  0.2913534211842048  0.6182608974255928  0.8262478710295014
  0.6252251889450733  0.6181019535985754  0.8262299887965696
  0.9571937043212841  0.6181987477444935  0.8250536289109434
  0.2914767897095984  0.9513060421289552  0.8270085240323937
  0.6269440375260729  0.9508584766306711  0.8265732259037719
  0.9631488350223023  0.9575395776722218  0.8498660002458109
  0.1076689731719469  0.1132797661046681  0.1501278279801639
  0.4578390137463089  0.1319371343856588  0.1736451845534788
  0.7931452474101874  0.1321410474534375  0.1749471708640726
  0.1242980943420591  0.4644661782275108  0.1729912352939493
  0.4584156709621752  0.4657234559982513  0.1742202402196611
  0.7920115347684913  0.4651054554947578  0.1737516161656529
  0.1242843957137367  0.8003721543748910  0.1734253616198629
  0.4577394980004783  0.7991927663925296  0.1736273684273826
  0.7918723431089347  0.7989953076842511  0.1737744223604381
  0.1249364194689804  0.1317365912372068  0.5062478981316332
  0.4577604147795640  0.1320230726499929  0.5067037790723532
  0.7915277451905780  0.1321236520366824  0.5067524575716362
  0.1245707579093747  0.4647859979779838  0.5062744110519759
  0.4581642975351201  0.4656006964200614  0.5071377924925855
  0.7919043313842380  0.4658738448145883  0.5075680077542515
  0.1249215865611220  0.7989839276623840  0.5073613729862885
  0.4588955939443764  0.7991428357512760  0.5077435447405421
  0.7926981540321734  0.7999594645263031  0.5102245185035130
  0.1244365223297876  0.1318541712117138  0.8407361393094419
  0.4585603396424460  0.1321418350060455  0.8404410300698686
  0.7941815226442515  0.1317287803211187  0.8420264319645909
  0.1252585154981389  0.4657108275845374  0.8406814674009979
  0.4582865682370993  0.4655305645939904  0.8405396173791928
  0.7918528602184836  0.4655007265243398  0.8407669037746501
  0.1240216185410787  0.8010314635367735  0.8426364615021527
  0.4582265345279808  0.7988960092698392  0.8403750439966942
  0.7941148280492953  0.8011281934758330  0.8416884276813050
  0.0475728414092913  0.2058822802779048  0.0070124341833235
  0.3819003507589969  0.2081282084699296  0.0071246391188780
  0.7175270988264586  0.2073008549236093  0.0072610837796319
  0.0489733240073491  0.5418352158763682  0.0074351983218932
  0.3822533329983457  0.5417136841577062  0.0072447534982771
  0.7158046403284928  0.5415832393752282  0.0073077035283333
  0.0424575166346699  0.8923283010890302  0.0056084908371048
  0.3813117395733556  0.8750636481817295  0.0067994946683427
  0.7162976427180965  0.8755649446196969  0.0074188227875283
  0.0478468199863400  0.2058183452212745  0.3375482584422898
  0.3818011244303463  0.2068548525035254  0.3389947333706758
  0.7152233215464250  0.2084713084578027  0.3405945425872332
  0.0488487654265910  0.5411043448271400  0.3402478171520116
  0.3821473815601237  0.5417730553259972  0.3406697870216178
  0.7158860985481752  0.5422590043320525  0.3414515225889048
  0.0486937250801347  0.8757028682388324  0.3401699599635180
  0.3817031547365985  0.8754281730101212  0.3402129552203803
  0.7154200162992908  0.8747420144235534  0.3404509765017636
  0.0489156238887389  0.2081469075313009  0.6736482092327307
  0.3817411402363007  0.2079865927316575  0.6730938252513852
  0.7156636683790296  0.2080943145768686  0.6739690018157845
  0.0489431948408665  0.5422389516758699  0.6742612788493574
  0.3818791446630883  0.5414396050082004  0.6735804388317135
  0.7158049401165343  0.5421599605273002  0.6740971592712484
  0.0491398725571059  0.8757149709708258  0.6760855948687521
  0.3824393982176630  0.8750774781945410  0.6740610781621825
  0.7186149797224743  0.8759763189446588  0.6770083724801879
  0.1989673213088139  0.0416051536441344  0.3229898204239490
  0.5341250506400641  0.0416938369538116  0.3260300521357422
  0.8680618408321550  0.0417067213356788  0.3259011762599187
  0.1996277382381848  0.3730530655775084  0.3239122189235957
  0.5344996422163533  0.3752660971114992  0.3263523272269921
  0.8679794415242199  0.3746830883524694  0.3257401578029118
  0.2010159724060401  0.7083787438563505  0.3259382251748377
  0.5348938354465318  0.7086455669504446  0.3269056567288899
  0.8678569325442709  0.7082956921521912  0.3264163851293844
  0.2011042172474973  0.0414801448532813  0.6593311033316027
  0.5352149886108251  0.0414894483600605  0.6597857209305715
  0.8678565606251851  0.0428032578786670  0.6610005831631298
  0.2008097129210000  0.3744378226498739  0.6585497752724194
  0.5342916355594411  0.3749723485400409  0.6595495161519409
  0.8678784070098260  0.3746300958755242  0.6594064839544131
  0.2008557683533354  0.7086006861546110  0.6597515956912972
  0.5355327163736305  0.7085241469320493  0.6598307800791616
  0.8682671249650440  0.7102963623687586  0.6624487933963934
  0.1988693812800193  0.0405598885195246  0.9929856763918679
  0.5343996013897510  0.0415380061021082  0.9925646821015803
  0.8867190247872756  0.0368488553296018  0.9943905071457593
  0.2010053115559458  0.3747790546695313  0.9928783311901483
  0.5344685075971398  0.3750098769347332  0.9927555500317027
  0.8682632384525562  0.3745119626585804  0.9931992875036713
  0.2000357337465104  0.7102633627104566  0.9927347121825036
  0.5342740215911306  0.7084962255266092  0.9926904018519593
  0.8681463640096183  0.7088809204099107  0.9925827658617052
 
  0.00000000E+00  0.00000000E+00  0.00000000E+00
  0.00000000E+00  0.00000000E+00  0.00000000E+00
  0.00000000E+00  0.00000000E+00  0.00000000E+00
  0.00000000E+00  0.00000000E+00  0.00000000E+00
  0.00000000E+00  0.00000000E+00  0.00000000E+00
  0.00000000E+00  0.00000000E+00  0.00000000E+00
  0.00000000E+00  0.00000000E+00  0.00000000E+00
  0.00000000E+00  0.00000000E+00  0.00000000E+00
  0.00000000E+00  0.00000000E+00  0.00000000E+00
  0.00000000E+00  0.00000000E+00  0.00000000E+00
  0.00000000E+00  0.00000000E+00  0.00000000E+00
  0.00000000E+00  0.00000000E+00  0.00000000E+00
  0.00000000E+00  0.00000000E+00  0.00000000E+00
  0.00000000E+00  0.00000000E+00  0.00000000E+00
  0.00000000E+00  0.00000000E+00  0.00000000E+00
  0.00000000E+00  0.00000000E+00  0.00000000E+00
  0.00000000E+00  0.00000000E+00  0.00000000E+00
  0.00000000E+00  0.00000000E+00  0.00000000E+00
  0.00000000E+00  0.00000000E+00  0.00000000E+00
  0.00000000E+00  0.00000000E+00  0.00000000E+00
  0.00000000E+00  0.00000000E+00  0.00000000E+00
  0.00000000E+00  0.00000000E+00  0.00000000E+00
  0.00000000E+00  0.00000000E+00  0.00000000E+00
  0.00000000E+00  0.00000000E+00  0.00000000E+00
  0.00000000E+00  0.00000000E+00  0.00000000E+00
  0.00000000E+00  0.00000000E+00  0.00000000E+00
  0.00000000E+00  0.00000000E+00  0.00000000E+00
  0.00000000E+00  0.00000000E+00  0.00000000E+00
  0.00000000E+00  0.00000000E+00  0.00000000E+00
  0.00000000E+00  0.00000000E+00  0.00000000E+00
  0.00000000E+00  0.00000000E+00  0.00000000E+00
  0.00000000E+00  0.00000000E+00  0.00000000E+00
  0.00000000E+00  0.00000000E+00  0.00000000E+00
  0.00000000E+00  0.00000000E+00  0.00000000E+00
  0.00000000E+00  0.00000000E+00  0.00000000E+00
  0.00000000E+00  0.00000000E+00  0.00000000E+00
  0.00000000E+00  0.00000000E+00  0.00000000E+00
  0.00000000E+00  0.00000000E+00  0.00000000E+00
  0.00000000E+00  0.00000000E+00  0.00000000E+00
  0.00000000E+00  0.00000000E+00  0.00000000E+00
  0.00000000E+00  0.00000000E+00  0.00000000E+00
  0.00000000E+00  0.00000000E+00  0.00000000E+00
  0.00000000E+00  0.00000000E+00  0.00000000E+00
  0.00000000E+00  0.00000000E+00  0.00000000E+00
  0.00000000E+00  0.00000000E+00  0.00000000E+00
  0.00000000E+00  0.00000000E+00  0.00000000E+00
  0.00000000E+00  0.00000000E+00  0.00000000E+00
  0.00000000E+00  0.00000000E+00  0.00000000E+00
  0.00000000E+00  0.00000000E+00  0.00000000E+00
  0.00000000E+00  0.00000000E+00  0.00000000E+00
  0.00000000E+00  0.00000000E+00  0.00000000E+00
  0.00000000E+00  0.00000000E+00  0.00000000E+00
  0.00000000E+00  0.00000000E+00  0.00000000E+00
  0.00000000E+00  0.00000000E+00  0.00000000E+00
  0.00000000E+00  0.00000000E+00  0.00000000E+00
  0.00000000E+00  0.00000000E+00  0.00000000E+00
  0.00000000E+00  0.00000000E+00  0.00000000E+00
  0.00000000E+00  0.00000000E+00  0.00000000E+00
  0.00000000E+00  0.00000000E+00  0.00000000E+00
  0.00000000E+00  0.00000000E+00  0.00000000E+00
  0.00000000E+00  0.00000000E+00  0.00000000E+00
  0.00000000E+00  0.00000000E+00  0.00000000E+00
  0.00000000E+00  0.00000000E+00  0.00000000E+00
  0.00000000E+00  0.00000000E+00  0.00000000E+00
  0.00000000E+00  0.00000000E+00  0.00000000E+00
  0.00000000E+00  0.00000000E+00  0.00000000E+00
  0.00000000E+00  0.00000000E+00  0.00000000E+00
  0.00000000E+00  0.00000000E+00  0.00000000E+00
  0.00000000E+00  0.00000000E+00  0.00000000E+00
  0.00000000E+00  0.00000000E+00  0.00000000E+00
  0.00000000E+00  0.00000000E+00  0.00000000E+00
  0.00000000E+00  0.00000000E+00  0.00000000E+00
  0.00000000E+00  0.00000000E+00  0.00000000E+00
  0.00000000E+00  0.00000000E+00  0.00000000E+00
  0.00000000E+00  0.00000000E+00  0.00000000E+00
  0.00000000E+00  0.00000000E+00  0.00000000E+00
  0.00000000E+00  0.00000000E+00  0.00000000E+00
  0.00000000E+00  0.00000000E+00  0.00000000E+00
  0.00000000E+00  0.00000000E+00  0.00000000E+00
  0.00000000E+00  0.00000000E+00  0.00000000E+00
  0.00000000E+00  0.00000000E+00  0.00000000E+00
  0.00000000E+00  0.00000000E+00  0.00000000E+00
  0.00000000E+00  0.00000000E+00  0.00000000E+00
  0.00000000E+00  0.00000000E+00  0.00000000E+00
  0.00000000E+00  0.00000000E+00  0.00000000E+00
  0.00000000E+00  0.00000000E+00  0.00000000E+00
  0.00000000E+00  0.00000000E+00  0.00000000E+00
  0.00000000E+00  0.00000000E+00  0.00000000E+00
  0.00000000E+00  0.00000000E+00  0.00000000E+00
  0.00000000E+00  0.00000000E+00  0.00000000E+00
  0.00000000E+00  0.00000000E+00  0.00000000E+00
  0.00000000E+00  0.00000000E+00  0.00000000E+00
  0.00000000E+00  0.00000000E+00  0.00000000E+00
  0.00000000E+00  0.00000000E+00  0.00000000E+00
  0.00000000E+00  0.00000000E+00  0.00000000E+00
  0.00000000E+00  0.00000000E+00  0.00000000E+00
  0.00000000E+00  0.00000000E+00  0.00000000E+00
  0.00000000E+00  0.00000000E+00  0.00000000E+00
  0.00000000E+00  0.00000000E+00  0.00000000E+00
  0.00000000E+00  0.00000000E+00  0.00000000E+00
  0.00000000E+00  0.00000000E+00  0.00000000E+00
  0.00000000E+00  0.00000000E+00  0.00000000E+00
  0.00000000E+00  0.00000000E+00  0.00000000E+00
  0.00000000E+00  0.00000000E+00  0.00000000E+00
  0.00000000E+00  0.00000000E+00  0.00000000E+00
  0.00000000E+00  0.00000000E+00  0.00000000E+00
  0.00000000E+00  0.00000000E+00  0.00000000E+00
  0.00000000E+00  0.00000000E+00  0.00000000E+00
  0.00000000E+00  0.00000000E+00  0.00000000E+00
  0.00000000E+00  0.00000000E+00  0.00000000E+00
  0.00000000E+00  0.00000000E+00  0.00000000E+00
  0.00000000E+00  0.00000000E+00  0.00000000E+00
  0.00000000E+00  0.00000000E+00  0.00000000E+00
  0.00000000E+00  0.00000000E+00  0.00000000E+00
  0.00000000E+00  0.00000000E+00  0.00000000E+00
  0.00000000E+00  0.00000000E+00  0.00000000E+00
  0.00000000E+00  0.00000000E+00  0.00000000E+00
  0.00000000E+00  0.00000000E+00  0.00000000E+00
  0.00000000E+00  0.00000000E+00  0.00000000E+00
  0.00000000E+00  0.00000000E+00  0.00000000E+00
  0.00000000E+00  0.00000000E+00  0.00000000E+00
  0.00000000E+00  0.00000000E+00  0.00000000E+00
  0.00000000E+00  0.00000000E+00  0.00000000E+00
  0.00000000E+00  0.00000000E+00  0.00000000E+00
  0.00000000E+00  0.00000000E+00  0.00000000E+00
  0.00000000E+00  0.00000000E+00  0.00000000E+00
  0.00000000E+00  0.00000000E+00  0.00000000E+00
  0.00000000E+00  0.00000000E+00  0.00000000E+00
  0.00000000E+00  0.00000000E+00  0.00000000E+00
  0.00000000E+00  0.00000000E+00  0.00000000E+00
  0.00000000E+00  0.00000000E+00  0.00000000E+00
  0.00000000E+00  0.00000000E+00  0.00000000E+00
  0.00000000E+00  0.00000000E+00  0.00000000E+00
  0.00000000E+00  0.00000000E+00  0.00000000E+00
  0.00000000E+00  0.00000000E+00  0.00000000E+00
  0.00000000E+00  0.00000000E+00  0.00000000E+00
  0.00000000E+00  0.00000000E+00  0.00000000E+00
  0.00000000E+00  0.00000000E+00  0.00000000E+00
  0.00000000E+00  0.00000000E+00  0.00000000E+00
  0.00000000E+00  0.00000000E+00  0.00000000E+00
  0.00000000E+00  0.00000000E+00  0.00000000E+00
  0.00000000E+00  0.00000000E+00  0.00000000E+00
  0.00000000E+00  0.00000000E+00  0.00000000E+00
  0.00000000E+00  0.00000000E+00  0.00000000E+00
  0.00000000E+00  0.00000000E+00  0.00000000E+00
  0.00000000E+00  0.00000000E+00  0.00000000E+00
  0.00000000E+00  0.00000000E+00  0.00000000E+00
  0.00000000E+00  0.00000000E+00  0.00000000E+00
  0.00000000E+00  0.00000000E+00  0.00000000E+00
  0.00000000E+00  0.00000000E+00  0.00000000E+00
  0.00000000E+00  0.00000000E+00  0.00000000E+00
  0.00000000E+00  0.00000000E+00  0.00000000E+00
  0.00000000E+00  0.00000000E+00  0.00000000E+00
  0.00000000E+00  0.00000000E+00  0.00000000E+00
  0.00000000E+00  0.00000000E+00  0.00000000E+00
  0.00000000E+00  0.00000000E+00  0.00000000E+00
  0.00000000E+00  0.00000000E+00  0.00000000E+00
  0.00000000E+00  0.00000000E+00  0.00000000E+00
  0.00000000E+00  0.00000000E+00  0.00000000E+00
  0.00000000E+00  0.00000000E+00  0.00000000E+00
  0.00000000E+00  0.00000000E+00  0.00000000E+00
  0.00000000E+00  0.00000000E+00  0.00000000E+00
  0.00000000E+00  0.00000000E+00  0.00000000E+00
  0.00000000E+00  0.00000000E+00  0.00000000E+00
  0.00000000E+00  0.00000000E+00  0.00000000E+00
  0.00000000E+00  0.00000000E+00  0.00000000E+00
  0.00000000E+00  0.00000000E+00  0.00000000E+00
  0.00000000E+00  0.00000000E+00  0.00000000E+00
  0.00000000E+00  0.00000000E+00  0.00000000E+00
  0.00000000E+00  0.00000000E+00  0.00000000E+00
  0.00000000E+00  0.00000000E+00  0.00000000E+00
  0.00000000E+00  0.00000000E+00  0.00000000E+00
  0.00000000E+00  0.00000000E+00  0.00000000E+00
  0.00000000E+00  0.00000000E+00  0.00000000E+00
  0.00000000E+00  0.00000000E+00  0.00000000E+00
  0.00000000E+00  0.00000000E+00  0.00000000E+00
  0.00000000E+00  0.00000000E+00  0.00000000E+00
  0.00000000E+00  0.00000000E+00  0.00000000E+00
  0.00000000E+00  0.00000000E+00  0.00000000E+00
  0.00000000E+00  0.00000000E+00  0.00000000E+00
  0.00000000E+00  0.00000000E+00  0.00000000E+00
  0.00000000E+00  0.00000000E+00  0.00000000E+00
  0.00000000E+00  0.00000000E+00  0.00000000E+00
  0.00000000E+00  0.00000000E+00  0.00000000E+00
  0.00000000E+00  0.00000000E+00  0.00000000E+00
  0.00000000E+00  0.00000000E+00  0.00000000E+00
  0.00000000E+00  0.00000000E+00  0.00000000E+00
  0.00000000E+00  0.00000000E+00  0.00000000E+00
  0.00000000E+00  0.00000000E+00  0.00000000E+00
  0.00000000E+00  0.00000000E+00  0.00000000E+00
  0.00000000E+00  0.00000000E+00  0.00000000E+00
  0.00000000E+00  0.00000000E+00  0.00000000E+00
  0.00000000E+00  0.00000000E+00  0.00000000E+00
  0.00000000E+00  0.00000000E+00  0.00000000E+00
  0.00000000E+00  0.00000000E+00  0.00000000E+00
  0.00000000E+00  0.00000000E+00  0.00000000E+00
  0.00000000E+00  0.00000000E+00  0.00000000E+00
  0.00000000E+00  0.00000000E+00  0.00000000E+00
  0.00000000E+00  0.00000000E+00  0.00000000E+00
  0.00000000E+00  0.00000000E+00  0.00000000E+00
  0.00000000E+00  0.00000000E+00  0.00000000E+00
  0.00000000E+00  0.00000000E+00  0.00000000E+00
  0.00000000E+00  0.00000000E+00  0.00000000E+00
  0.00000000E+00  0.00000000E+00  0.00000000E+00
  0.00000000E+00  0.00000000E+00  0.00000000E+00
  0.00000000E+00  0.00000000E+00  0.00000000E+00
  0.00000000E+00  0.00000000E+00  0.00000000E+00
  0.00000000E+00  0.00000000E+00  0.00000000E+00
  0.00000000E+00  0.00000000E+00  0.00000000E+00
  0.00000000E+00  0.00000000E+00  0.00000000E+00
  0.00000000E+00  0.00000000E+00  0.00000000E+00
  0.00000000E+00  0.00000000E+00  0.00000000E+00
  0.00000000E+00  0.00000000E+00  0.00000000E+00
  0.00000000E+00  0.00000000E+00  0.00000000E+00
  0.00000000E+00  0.00000000E+00  0.00000000E+00
